 vasp.5.4.4.18Apr17-6-g9f103f2a35 (build Jul 16 2019 12:12:28) complex

 executed on             LinuxIFC date 2020.01.06  15:35:42

 INCAR:
 POTCAR:    PAW_PBE Ti_pv 07Sep2000
 POTCAR:    PAW_PBE O 08Apr2002
 POTCAR:    PAW_PBE F 08Apr2002
 POTCAR:    PAW_PBE Ti_pv 07Sep2000
   VRHFIN =Ti: d3 s1

   TITEL  = PAW_PBE Ti_pv 07Sep2000
   POMASS =   47.880; ZVAL   =   10.000    mass and valenz
   ENMAX  =  222.335; ENMIN  =  166.751 eV

 POTCAR:    PAW_PBE O 08Apr2002
   VRHFIN =O: s2p4

   TITEL  = PAW_PBE O 08Apr2002
   POMASS =   16.000; ZVAL   =    6.000    mass and valenz
   ENMAX  =  400.000; ENMIN  =  300.000 eV

 POTCAR:    PAW_PBE F 08Apr2002
   VRHFIN =F: s2p5

   TITEL  = PAW_PBE F 08Apr2002
   POMASS =   18.998; ZVAL   =    7.000    mass and valenz
   ENMAX  =  400.000; ENMIN  =  300.000 eV

 Optimization of the real space projectors (new method)

 maximal supplied QI-value         = 15.12
 optimisation between [QCUT,QGAM] = [ 11.34, 22.83] = [ 36.00,145.93] Ry
 Optimized for a Real-space Cutoff    1.56 Angstroem

   l    n(q)    QCUT    max X(q) W(low)/X(q) W(high)/X(q)  e(spline)
   1     10    11.338     4.216    0.27E-04    0.12E-04    0.66E-07
   1     10    11.338     5.422    0.81E-04    0.24E-04    0.19E-06
   2     10    11.338    72.084    0.64E-04    0.21E-03    0.51E-06
   2     10    11.338    65.965    0.63E-04    0.21E-03    0.50E-06
   0     11    11.338    41.531    0.33E-04    0.54E-04    0.13E-06
   0     11    11.338    16.290    0.26E-04    0.41E-04    0.11E-06
 Optimization of the real space projectors (new method)

[...]

   l    n(q)    QCUT    max X(q) W(low)/X(q) W(high)/X(q)  e(spline)
   0      8    11.387    20.381    0.89E-04    0.31E-03    0.27E-06
   0      8    11.387    15.268    0.93E-04    0.32E-03    0.29E-06
   1      8    11.387     5.964    0.53E-04    0.28E-03    0.29E-06
   1      8    11.387     5.382    0.37E-04    0.22E-03    0.26E-06
 Optimization of the real space projectors (new method)

 maximal supplied QI-value         = 24.76
 optimisation between [QCUT,QGAM] = [ 11.39, 22.77] = [ 36.31,145.25] Ry
 Optimized for a Real-space Cutoff    1.20 Angstroem

   l    n(q)    QCUT    max X(q) W(low)/X(q) W(high)/X(q)  e(spline)
   0      8    11.387    14.049    0.69E-04    0.23E-03    0.18E-06
   0      8    11.387     8.945    0.88E-04    0.30E-03    0.26E-06
   1      8    11.387     7.086    0.62E-04    0.27E-03    0.27E-06
   1      8    11.387     6.747    0.46E-04    0.23E-03    0.25E-06

  PAW_PBE Ti_pv 07Sep2000               :
  PAW_PBE O 08Apr2002                   :
  PAW_PBE F 08Apr2002                   :

 POSCAR: Ti64 O64 F128
  positions in direct lattice
  velocities in cartesian coordinates
 exchange correlation table for  LEXCH =       14
   RHO(1)=    0.500       N(1)  =     2000
   RHO(2)=  100.500       N(2)  =     4000

 VTST: version 3.2, (02/03/18)

 CHAIN: initializing optimizer

 OPT: Using VASP QUASI-newton optimizer
 CHAIN: Read ICHAIN            0

 POSCAR: Ti64 O64 F128
  positions in direct lattice
  velocities in cartesian coordinates

 ion  position               nearest neighbor table
   1  0.995  0.996  0.995- 117 1.86  67 1.88 102 1.89 170 2.02 211 2.03 129 2.05
   2  0.000  0.992  0.493- 118 1.81  66 1.82 171 1.94 192 1.95 130 2.01 212 2.08
   3  0.006  0.495  0.998-  88 1.83 116 1.86 137 1.93 131 1.98 213 2.01 193 2.02
   4  0.994  0.502  0.507-  65 1.82 103 1.83 214 1.93 222 2.00 172 2.01 136 2.03
   5  0.494  0.995  1.000- 100 1.83 120 1.84 139 1.95 132 1.96 215 2.01 173 2.03
   6  0.500  0.008  0.500- 111 1.77 190 1.90 133 1.91 138 1.92 174 1.93 224 2.01
   7  0.504  0.496  0.996-  69 1.87 119 1.88  89 1.88 191 2.02 134 2.03 216 2.04
   8  0.492  0.499  0.495- 101 1.80  68 1.85 223 1.97 217 1.97 135 2.01 175 2.06
   9  0.007  0.003  0.256-  90 1.83  66 1.86 218 1.94 226 1.97 129 2.00 196 2.06
  10  0.001  0.008  0.757-  67 1.79 112 1.84 176 1.94 197 1.98 227 2.04 130 2.06
  11  0.993  0.494  0.252- 106 1.82 121 1.86 136 1.93 131 1.96 219 2.00 177 2.02
  12  0.992  0.499  0.742- 107 1.82  65 1.82 225 1.93 220 1.96 137 2.02 178 2.03
  13  0.507  0.008  0.250- 113 1.81  91 1.84 132 1.92 138 1.97 194 2.00 230 2.04
  14  0.493  0.005  0.751- 104 1.81 114 1.84 139 1.93 133 1.99 231 2.01 179 2.03
  15  0.493  0.498  0.257-  68 1.82 105 1.84 228 1.95 221 1.99 134 2.01 180 2.04
  16  0.501  0.505  0.758-  69 1.80 115 1.87 181 1.94 195 1.96 229 2.03 135 2.06
  17  0.995  0.257  0.001- 116 1.82 109 1.87 145 1.96 140 1.96 182 2.01 211 2.01
  18  0.999  0.248  0.491-  73 1.77 212 1.91 183 1.93 201 1.93 222 1.94 141 2.01
  19  0.998  0.758  0.006- 117 1.81  70 1.85 202 1.94 184 1.97 147 2.04 213 2.05
  20  0.998  0.756  0.506- 118 1.83  71 1.83 203 1.94 185 1.96 214 2.02 146 2.02
  21  0.495  0.258  0.000- 119 1.80 108 1.84 149 1.95 142 1.97 186 2.03 215 2.06
  22  0.508  0.245  0.500-  92 1.80 111 1.89 143 1.92 148 1.93 223 1.96 198 2.00
  23  0.507  0.757  0.999-  93 1.82 120 1.83 151 1.94 144 1.99 216 2.01 199 2.01
  24  0.507  0.753  0.509-  72 1.79  94 1.83 217 1.95 224 1.96 200 2.01 150 2.07
  25  1.000  0.258  0.255- 121 1.79  73 1.88 208 1.94 187 1.95 140 1.98 218 2.02
  26  0.006  0.242  0.747- 112 1.80  95 1.83 141 1.96 145 1.97 225 2.04 209 2.05
  27  0.007  0.749  0.243-  70 1.81  96 1.84 219 1.94 226 1.97 146 2.05 210 2.06
  28  0.993  0.751  0.743- 110 1.82  71 1.84 227 1.93 220 1.97 188 2.02 147 2.02
  29  0.508  0.242  0.251-  97 1.81 113 1.82 142 1.92 148 1.96 228 2.00 204 2.02
  30  0.507  0.243  0.750-  98 1.84 114 1.84 149 1.92 143 1.97 229 2.02 205 2.02
  31  0.507  0.752  0.252-  99 1.79 150 1.92 230 1.93 221 1.93 144 1.94 206 2.00
  32  0.501  0.742  0.743- 115 1.80  72 1.84 189 1.93 207 1.96 151 2.02 231 2.06
  33  0.256  0.999  0.006-  74 1.84 100 1.86 245 1.93 232 1.96 170 2.01 156 2.04
  34  0.249  0.994  0.507- 127 1.82  75 1.84 171 1.94 190 1.98 233 2.02 155 2.02
  35  0.243  0.508  0.998- 122 1.82  88 1.84 158 1.93 152 1.97 191 2.02 244 2.03
  36  0.254  0.494  0.506-  76 1.85 101 1.87 126 1.88 172 2.03 157 2.04 234 2.04
  37  0.757  0.000  0.994- 102 1.79  80 1.87 235 1.95 248 1.95 173 2.04 153 2.05
  38  0.751  0.007  0.494-  79 1.83 123 1.83 192 1.92 174 1.98 154 2.00 249 2.02
  39  0.742  0.501  0.005-  89 1.79  77 1.87 236 1.95 246 1.95 160 2.03 193 2.05
  40  0.756  0.498  0.505-  78 1.84 103 1.85 247 1.95 237 1.97 175 2.01 159 2.02
  41  0.245  0.002  0.244-  74 1.83  90 1.84 238 1.93 251 1.96 155 2.04 194 2.05
  42  0.257  0.998  0.744-  75 1.84 104 1.84 252 1.93 239 1.96 176 2.02 156 2.02
  43  0.255  0.492  0.252- 128 1.83 105 1.83 157 1.93 152 1.96 240 2.03 177 2.04
  44  0.248  0.506  0.741-  76 1.79 124 1.83 178 1.94 195 1.97 250 2.03 158 2.05
  45  0.745  1.000  0.256-  91 1.85  79 1.86 255 1.94 241 1.95 153 2.00 196 2.00
  46  0.748  0.006  0.756-  80 1.82 125 1.83 179 1.94 197 1.96 256 2.03 154 2.06
  47  0.756  0.500  0.243-  77 1.81 106 1.85 242 1.95 253 1.95 180 2.02 159 2.04
  48  0.757  0.498  0.743- 107 1.82  78 1.84 254 1.93 243 1.97 181 2.02 160 2.03
  49  0.257  0.251  0.006- 108 1.83  81 1.86 244 1.93 232 1.97 167 2.02 182 2.05
  50  0.253  0.257  0.506- 126 1.80  82 1.85 198 1.95 183 2.00 166 2.03 233 2.05
  51  0.252  0.743  0.993- 122 1.81  85 1.83 199 1.94 184 1.96 245 2.04 161 2.04
  52  0.251  0.755  0.493-  84 1.83 127 1.86 200 1.95 185 1.97 234 2.00 162 2.04
  53  0.758  0.250  0.006- 109 1.80  83 1.85 235 1.94 246 1.94 169 2.02 186 2.03
  54  0.743  0.243  0.498- 123 1.81  92 1.84 168 1.93 163 1.95 247 2.01 201 2.03
  55  0.742  0.750  0.994-  93 1.82  87 1.83 236 1.94 248 1.94 202 2.01 164 2.04
  56  0.742  0.752  0.494-  94 1.81  86 1.86 249 1.94 237 1.95 165 2.01 203 2.02
  57  0.252  0.257  0.244- 128 1.82  81 1.82 204 1.95 187 1.98 166 2.03 238 2.03
  58  0.244  0.251  0.744-  82 1.83  95 1.84 250 1.93 239 1.97 167 2.03 205 2.05
  59  0.244  0.748  0.256-  96 1.83  84 1.84 240 1.93 251 1.97 161 2.02 206 2.06
  60  0.248  0.742  0.757- 124 1.81  85 1.83 188 1.93 207 1.97 162 2.04 252 2.04
[...]
 242  0.747  0.625  0.249-  63 1.93  47 1.95
 243  0.742  0.625  0.749-  64 1.96  48 1.97
 244  0.250  0.376  0.999-  49 1.93  35 2.03
 245  0.247  0.874  0.002-  33 1.93  51 2.04
 246  0.749  0.375  0.991-  53 1.94  39 1.95
 247  0.751  0.372  0.494-  40 1.95  54 2.01
 248  0.748  0.875  0.009-  55 1.94  37 1.95
 249  0.756  0.876  0.505-  56 1.94  38 2.02
 250  0.252  0.376  0.755-  58 1.93  44 2.03
 251  0.256  0.875  0.250-  41 1.96  59 1.97
 252  0.246  0.874  0.747-  42 1.93  60 2.04
 253  0.750  0.374  0.260-  61 1.93  47 1.95
 254  0.752  0.374  0.754-  48 1.93  62 2.03
 255  0.755  0.875  0.243-  45 1.94  63 1.94
 256  0.749  0.875  0.743-  64 1.93  46 2.03

IMPORTANT INFORMATION: All symmetrisations will be switched off!
NOSYMM: (Re-)initialisation of all symmetry stuff for point group C_1.

 KPOINTS: Title

Automatic generation of k-mesh.
Space group operators:
 irot       det(A)        alpha          n_x          n_y          n_z        tau_x        tau_y        tau_z
    1     1.000000     0.000000     1.000000     0.000000     0.000000     0.000000     0.000000     0.000000

 Subroutine IBZKPT returns following result:

 Found      4 irreducible k-points:

 Following reciprocal coordinates:
            Coordinates               Weight
  0.250000  0.250000  0.250000      2.000000
 -0.250000  0.250000  0.250000      2.000000
  0.250000 -0.250000  0.250000      2.000000
 -0.250000 -0.250000  0.250000      2.000000

 Following cartesian coordinates:
            Coordinates               Weight
  0.016206  0.016206  0.016206      2.000000
 -0.016206  0.016206  0.016206      2.000000
  0.016206 -0.016206  0.016206      2.000000
 -0.016206 -0.016206  0.016206      2.000000

 SYSTEM =  LTO
 POSCAR =  Ti64 O64 F128

 Startparameter for this run:
   NWRITE =      2    write-flag & timer
   PREC   = accura    normal or accurate (medium, high low for compatibility)
   ISTART =      1    job   : 0-new  1-cont  2-samecut
   ICHARG =      0    charge: 1-file 2-atom 10-const
   ISPIN  =      2    spin polarized calculation?
   LNONCOLLINEAR =      F non collinear calculations
   LSORBIT =      F    spin-orbit coupling
   INIWAV =      1    electr: 0-lowe 1-rand  2-diag
   LASPH  =      T    aspherical Exc in radial PAW
   METAGGA=      F    non-selfconsistent MetaGGA calc.

 Electronic Relaxation 1
   ENCUT  =  500.0 eV  36.75 Ry    6.06 a.u.  28.13 28.13 28.13*2*pi/ulx,y,z
   ENINI  =  500.0     initial cutoff
   ENAUG  =  613.6 eV  augmentation charge cutoff
   NELM   =     60;   NELMIN=  2; NELMDL=  0     # of ELM steps
   EDIFF  = 0.1E-05   stopping-criterion for ELM
   LREAL  =      T    real-space projection
   NLSPLINE    = F    spline interpolate recip. space projectors
   LCOMPAT=      F    compatible to vasp.4.4
   GGA_COMPAT  = T    GGA compatible to vasp.4.4-vasp.4.6
   LMAXPAW     = -100 max onsite density
   LMAXMIX     =    4 max onsite mixed and CHGCAR
   VOSKOWN=      0    Vosko Wilk Nusair interpolation
   ROPT   =   -0.00010  -0.00010  -0.00010
 Ionic relaxation
   EDIFFG = -.5E-01   stopping-criterion for IOM
   NSW    =    100    number of steps for IOM
   NBLOCK =      1;   KBLOCK =    100    inner block; outer block
[...]
   -.845E+01 0.706E+01 0.172E+02   0.940E+01 -.803E+01 -.173E+02   -.957E+00 0.966E+00 0.124E+00   -.188E-02 0.165E-02 -.358E-03
   -.828E+01 0.792E+01 -.112E+02   0.912E+01 -.881E+01 0.114E+02   -.848E+00 0.877E+00 -.201E+00   -.115E-02 0.279E-04 0.328E-03
   -.223E+02 0.138E+02 0.145E+01   0.226E+02 -.138E+02 -.139E+01   -.223E+00 -.442E-01 -.527E-01   0.870E-03 -.148E-02 0.108E-02
   0.105E+02 0.337E+02 -.247E+01   -.103E+02 -.345E+02 0.115E+01   -.197E+00 0.859E+00 0.132E+01   0.111E-02 0.563E-04 -.169E-02
   -.141E+02 0.142E+01 -.110E+02   0.149E+02 -.153E+01 0.119E+02   -.829E+00 0.106E+00 -.930E+00   -.724E-03 0.716E-03 0.362E-03
   0.194E+02 0.263E+02 -.205E+02   -.197E+02 -.270E+02 0.214E+02   0.274E+00 0.760E+00 -.939E+00   -.465E-03 -.588E-03 0.179E-03
   0.129E+02 -.130E+02 0.180E+01   -.138E+02 0.141E+02 -.203E+01   0.852E+00 -.113E+01 0.226E+00   0.322E-03 -.782E-03 0.114E-02
   -.251E+02 0.164E+02 -.128E+02   0.261E+02 -.176E+02 0.141E+02   -.103E+01 0.114E+01 -.131E+01   0.140E-02 0.765E-03 -.790E-03
   -.227E+02 0.107E+02 0.356E+02   0.235E+02 -.107E+02 -.367E+02   -.785E+00 -.787E-01 0.115E+01   0.807E-03 -.120E-02 0.547E-04
   0.280E+01 -.253E+02 0.324E+02   -.235E+01 0.263E+02 -.330E+02   -.454E+00 -.964E+00 0.585E+00   0.529E-03 -.276E-02 0.149E-02
   0.128E+02 0.456E+01 -.203E+02   -.136E+02 -.450E+01 0.214E+02   0.803E+00 -.595E-01 -.107E+01   -.350E-03 0.131E-02 0.395E-03
   -.136E+02 -.134E+02 -.171E+02   0.144E+02 0.132E+02 0.180E+02   -.814E+00 0.186E+00 -.840E+00   -.139E-02 0.300E-02 -.445E-03
   0.397E+02 0.806E+01 0.283E+02   -.408E+02 -.783E+01 -.293E+02   0.104E+01 -.226E+00 0.961E+00   -.950E-03 0.383E-03 -.108E-02
   -.119E+02 -.816E+01 0.124E+01   0.130E+02 0.790E+01 -.209E+01   -.105E+01 0.256E+00 0.851E+00   -.446E-03 -.277E-03 0.495E-03
   -.154E+02 0.190E+02 -.319E+00   0.163E+02 -.201E+02 0.586E+00   -.941E+00 0.112E+01 -.264E+00   0.123E-02 -.774E-03 0.429E-03
   -.263E+01 -.286E+02 0.129E+02   0.247E+01 0.298E+02 -.140E+02   0.154E+00 -.117E+01 0.108E+01   0.826E-03 0.357E-03 -.839E-03
   0.166E+02 0.547E+01 -.176E+02   -.172E+02 -.554E+01 0.183E+02   0.629E+00 0.669E-01 -.678E+00   0.109E-02 -.198E-02 -.107E-02
   -.168E+02 -.312E+02 -.452E+02   0.166E+02 0.323E+02 0.461E+02   0.147E+00 -.110E+01 -.925E+00   0.360E-03 -.243E-02 -.459E-03
   -.140E+02 -.921E+01 0.242E+02   0.150E+02 0.914E+01 -.250E+02   -.988E+00 0.633E-01 0.820E+00   -.663E-03 0.190E-02 0.878E-03
   -.993E+01 -.103E+02 0.108E+02   0.110E+02 0.100E+02 -.117E+02   -.102E+01 0.225E+00 0.891E+00   -.927E-03 0.240E-02 -.787E-03
   -.771E+01 -.107E+01 -.214E+02   0.872E+01 0.125E+01 0.223E+02   -.100E+01 -.171E+00 -.909E+00   -.837E-03 -.183E-02 0.679E-03
   0.118E+02 -.226E+02 -.260E+02   -.114E+02 0.235E+02 0.271E+02   -.422E+00 -.964E+00 -.105E+01   0.287E-04 -.742E-03 -.907E-03
   0.106E+02 0.108E+02 0.830E+01   -.104E+02 -.119E+02 -.938E+01   -.168E+00 0.115E+01 0.107E+01   0.456E-03 0.191E-02 0.954E-03
   0.885E+01 -.145E+02 -.107E+01   -.876E+01 0.153E+02 0.961E-01   -.954E-01 -.794E+00 0.972E+00   0.816E-03 0.573E-03 -.190E-03
   -.230E+02 -.868E+01 -.199E+02   0.237E+02 0.865E+01 0.210E+02   -.668E+00 0.244E-01 -.114E+01   0.531E-03 0.643E-03 0.115E-03
   0.279E+02 0.189E+02 -.109E+02   -.290E+02 -.197E+02 0.107E+02   0.110E+01 0.811E+00 0.171E+00   0.284E-03 0.169E-02 -.102E-03
   0.189E+02 -.349E+01 0.203E+02   -.199E+02 0.339E+01 -.212E+02   0.950E+00 0.102E+00 0.978E+00   -.622E-03 -.688E-03 -.959E-03
   0.595E+01 0.180E+02 0.161E+02   -.690E+01 -.178E+02 -.170E+02   0.956E+00 -.187E+00 0.922E+00   -.122E-02 -.181E-02 -.163E-03
   0.511E+01 -.255E+02 0.296E+02   -.499E+01 0.266E+02 -.306E+02   -.120E+00 -.114E+01 0.925E+00   -.521E-03 -.287E-03 -.531E-03
   0.101E+02 0.642E+01 0.159E+02   -.112E+02 -.612E+01 -.168E+02   0.108E+01 -.306E+00 0.911E+00   -.209E-03 -.175E-02 0.871E-03
   0.229E+02 0.968E+00 -.416E+01   -.240E+02 -.118E+01 0.515E+01   0.113E+01 0.211E+00 -.988E+00   0.444E-03 0.752E-03 0.438E-03
   -.527E+01 0.257E+02 -.660E+01   0.503E+01 -.267E+02 0.771E+01   0.240E+00 0.108E+01 -.110E+01   0.759E-03 0.166E-02 -.116E-02
[...]
   0.302E+02 0.441E+01 -.164E+01   -.358E+02 -.487E+01 0.144E+01   0.558E+01 0.456E+00 0.194E+00   -.673E-03 0.682E-03 -.892E-03
   0.216E+01 -.115E+02 -.388E+00   -.256E+01 0.161E+02 -.909E+00   0.406E+00 -.466E+01 0.130E+01   -.146E-03 -.124E-02 0.823E-03
   0.208E+02 0.117E+02 -.509E+01   -.232E+02 -.166E+02 0.551E+01   0.242E+01 0.488E+01 -.398E+00   -.663E-04 0.106E-02 0.189E-03
   0.249E+01 -.118E+02 0.248E+02   -.273E+01 0.127E+02 -.304E+02   0.246E+00 -.890E+00 0.559E+01   0.144E-03 0.898E-03 0.340E-03
   0.301E+01 -.124E+02 0.145E+02   -.282E+01 0.983E+01 -.175E+02   -.178E+00 0.258E+01 0.291E+01   -.464E-03 0.216E-02 -.467E-03
   -.308E+01 -.547E+01 -.211E+02   0.264E+01 0.602E+01 0.270E+02   0.428E+00 -.555E+00 -.583E+01   0.107E-03 -.688E-03 -.364E-03
   -.337E+02 0.222E+01 -.934E+01   0.373E+02 0.124E+01 0.132E+02   -.356E+01 -.346E+01 -.386E+01   -.533E-04 -.226E-02 0.437E-03
   -.115E+02 -.902E+01 -.149E+02   0.140E+02 0.134E+02 0.193E+02   -.245E+01 -.435E+01 -.446E+01   0.220E-03 -.850E-03 0.192E-03
   0.130E+01 0.445E+01 0.371E+01   0.294E+01 -.495E+01 -.341E+01   -.424E+01 0.498E+00 -.296E+00   -.269E-03 0.503E-03 -.130E-03
   0.162E+02 0.183E+02 0.379E+01   -.187E+02 -.235E+02 -.449E+01   0.245E+01 0.526E+01 0.674E+00   0.154E-03 0.577E-03 -.741E-04
   -.817E+00 -.185E+02 -.221E+02   0.125E+01 0.198E+02 0.290E+02   -.442E+00 -.135E+01 -.692E+01   -.192E-03 0.184E-02 0.131E-03
   0.187E+01 0.949E+01 -.237E+02   -.170E+01 -.142E+02 0.265E+02   -.157E+00 0.475E+01 -.282E+01   -.883E-04 0.150E-02 0.893E-04
   -.213E+02 0.356E+01 0.311E+02   0.254E+02 -.364E+01 -.368E+02   -.411E+01 0.851E-01 0.566E+01   0.272E-03 -.164E-02 0.286E-03
   -.566E+01 -.912E+01 0.339E+01   0.407E+01 0.138E+02 -.800E+01   0.159E+01 -.468E+01 0.458E+01   -.138E-03 -.122E-02 -.442E-03
   0.441E+00 -.423E+01 0.364E+01   -.773E-13 0.702E-12 -.124E-11   -.443E+00 0.422E+01 -.367E+01   -.794E-03 0.358E-03 0.593E-03

 POSITION                                       TOTAL-FORCE (eV/Angst)
     15.34824     15.35876     15.34488         0.006708      0.003377     -0.002313
      0.00133     15.29812      7.61284        -0.002214     -0.013266     -0.002687
      0.08702      7.63919     15.39464        -0.004770     -0.007867     -0.000342
     15.32749      7.74779      7.82307        -0.009816      0.004677     -0.002266
      7.61947     15.34478     15.41893        -0.007036     -0.008696     -0.005812
      7.71740      0.12798      7.71614         0.002979     -0.003510      0.003653
      7.77914      7.64628     15.36111         0.000956      0.001551      0.000500
      7.58828      7.70377      7.63314        -0.004492     -0.001270     -0.002025
      0.10699      0.03911      3.95347         0.002677      0.001342     -0.000927
      0.01617      0.11648     11.67709         0.000572     -0.000962      0.007188
     15.32482      7.62201      3.88310        -0.008587     -0.005255      0.001496
     15.30919      7.69464     11.45240        -0.009670      0.003095     -0.008937
      7.81408      0.12144      3.85824        -0.003054      0.006014      0.006010
      7.59873      0.07867     11.58762        -0.007900     -0.004001      0.002037
      7.60504      7.67503      3.97063         0.001282     -0.003208      0.004811
      7.72883      7.78359     11.69535        -0.001207      0.009182     -0.000568
     15.35431      3.96760      0.01526         0.004099     -0.002521      0.003093
     15.40847      3.82526      7.57941         0.005211     -0.003454     -0.011703
     15.39482     11.69454      0.09449         0.004092      0.018001      0.003990
     15.39676     11.66901      7.80707        -0.002023      0.004287     -0.005290
      7.63127      3.98095      0.00264        -0.001873      0.001371      0.004326
      7.83693      3.78685      7.71257        -0.010759     -0.005277     -0.004513
      7.82177     11.67715     15.40824        -0.003594      0.000923     -0.003231
      7.81638     11.61146      7.85225         0.012362      0.004435      0.005201
     15.41892      3.98268      3.93834         0.004452     -0.006057     -0.007102
      0.09774      3.73838     11.52844         0.007017     -0.011044     -0.001405
      0.10865     11.55088      3.74854         0.007797      0.006468      0.006717
     15.31717     11.58390     11.46736        -0.006669      0.005434     -0.009017
      7.83946      3.73858      3.86960        -0.007050     -0.001635      0.006794
      7.81688      3.74670     11.56606        -0.002565     -0.010919     -0.005434
      7.82192     11.59365      3.88331         0.003049      0.001941      0.005189
      7.73535     11.45116     11.46657         0.003610      0.008060      0.001115
      3.95129     15.40931      0.09613         0.000304     -0.002134     -0.002974
      3.84481     15.32914      7.81497         0.001879     -0.003023      0.003425
      3.75211      7.82992     15.39267         0.001273      0.012850      0.000821
      3.91991      7.62253      7.81061         0.003347     -0.006975     -0.000956
     11.68269      0.00695     15.33863         0.012190      0.000979     -0.000865
     11.58625      0.10165      7.62574        -0.003879     -0.012325      0.004598
     11.44481      7.72216      0.07863         0.003041     -0.001426      0.003880
     11.65552      7.68156      7.79563        -0.000704      0.006457     -0.002337
      3.77586      0.03042      3.76250        -0.005168      0.004193     -0.008003
      3.96718     15.39331     11.47980         0.003374     -0.003823     -0.000052
      3.93948      7.59656      3.88521         0.006408     -0.010834      0.003179
      3.81843      7.80941     11.43602        -0.004111      0.009614     -0.011139
     11.48977     15.42223      3.95046         0.001554      0.001437      0.009679
     11.54604      0.09606     11.66899        -0.000429     -0.006273      0.001282
     11.66111      7.70549      3.74531        -0.003236     -0.000595      0.000308
     11.68014      7.68582     11.45882        -0.001261      0.005703     -0.007597
      3.97205      3.87255      0.08712        -0.001847      0.000950      0.003049
      3.89753      3.96017      7.79887         0.006502     -0.007064     -0.003083
      3.88244     11.45496     15.32313         0.004960      0.015075     -0.002647
      3.87717     11.65349      7.60026         0.000621      0.002386      0.000607
     11.68617      3.86112      0.09968         0.010966      0.002477      0.004630
     11.46589      3.74097      7.68433        -0.010446     -0.012000     -0.003037
     11.44600     11.57024     15.33490        -0.010482      0.001624     -0.005668
     11.44396     11.59843      7.62266         0.000446      0.005557      0.006241
      3.88220      3.97023      3.75717        -0.001967     -0.005462     -0.007110
      3.76255      3.87796     11.47022         0.003945     -0.007386     -0.009923
      3.76509     11.54411      3.94263        -0.001617      0.001610      0.000571
      3.83074     11.44374     11.67166         0.000198      0.011935      0.001811
[...]
     11.51628      9.64605      3.84872        -0.011434      0.001297      0.000842
     11.44234      9.64241     11.55956        -0.010189     -0.002797     -0.003838
      3.86087      5.79961     15.40774        -0.001894      0.005055      0.003462
      3.81644     13.48428      0.03628         0.003295      0.001657      0.020405
     11.55910      5.78234     15.29424        -0.001140      0.000348     -0.010781
     11.58564      5.74376      7.61536         0.005158     -0.004909     -0.022571
     11.54621     13.49825      0.14274        -0.008793     -0.000257      0.015267
     11.66555     13.51853      7.78896         0.023190      0.000183      0.002349
      3.89391      5.79668     11.64931         0.003829      0.002851     -0.004135
      3.95019     13.50568      3.86425        -0.003488      0.000146      0.008428
      3.79900     13.47502     11.52382        -0.011426      0.000100     -0.028539
     11.57656      5.77210      4.00683        -0.006860     -0.002765      0.025951
     11.60518      5.76400     11.63566         0.014546     -0.001756      0.021220
     11.65167     13.49909      3.74099         0.011575      0.001270     -0.023081
     11.55608     13.50216     11.46845         0.003666     -0.000486     -0.020020
    total drift:                               -0.003120     -0.009522     -0.024473

  FREE ENERGIE OF THE ION-ELECTRON SYSTEM (eV)
  free  energy   TOTEN  =     -1753.56597204 eV

  energy  without entropy=    -1753.56597204  energy(sigma->0) =    -1753.56597204

 stress matrix after NEB project (eV)
     -5.29705     -0.28941      0.28731
     -0.28941     21.42089      0.42239
      0.28731      0.42239     -6.42358
  FORCES: max atom, RMS     0.045064    0.017540
  FORCE total and by dimension    0.280642    0.040603
  Stress total and by dimension   22.997069   21.420893
 Quasi-Newton relaxation of ions (Broydens 2nd method)
  g(Force)  = 0.380E-02   g(Stress)= 0.000E+00

 Reset! Starting new Quasi-Newton update for ions

 reached required accuracy - stopping structural energy minimisation
 writing wavefunctions

 total charge

[...]

 magnetization (x)

# of ion       s       p       d       tot
    1        0.000   0.000   0.000   0.000
    2        0.000  -0.000   0.000   0.000
    3        0.000  -0.000  -0.000  -0.000
    4        0.000   0.000   0.000   0.000
    5        0.000   0.000   0.000   0.000
    6       -0.000   0.000  -0.000  -0.000
    7        0.000   0.000   0.000   0.000
    8       -0.000  -0.000   0.000   0.000
    9       -0.000   0.000   0.000   0.000
   10        0.000   0.000   0.000   0.000
   11        0.000  -0.000  -0.000  -0.000
   12        0.000  -0.000   0.000  -0.000
   13        0.000   0.000   0.000   0.000
   14        0.000   0.000   0.000   0.000
   15       -0.000   0.000   0.000   0.000
   16        0.000  -0.000   0.000  -0.000
   17        0.000   0.000   0.000   0.000
   18        0.000  -0.000   0.000   0.000
   19        0.000  -0.000  -0.000  -0.000
   20       -0.000   0.000   0.000   0.000
   21       -0.000  -0.000  -0.000  -0.000
   22       -0.000   0.000  -0.000  -0.000
   23       -0.000   0.000   0.000   0.000
   24       -0.000   0.000  -0.000  -0.000
   25       -0.000  -0.000  -0.000  -0.000
   26        0.000  -0.000  -0.000  -0.000
   27       -0.000  -0.000  -0.000  -0.000
   28        0.000  -0.000   0.000   0.000
   29        0.000   0.000   0.000   0.000
   30        0.000   0.000   0.000   0.000
   31       -0.000  -0.000  -0.000  -0.000
   32       -0.000   0.000  -0.000  -0.000
   33       -0.000   0.000   0.000   0.000
   34        0.000  -0.000  -0.000   0.000
   35        0.000  -0.000  -0.000  -0.000
   36       -0.000  -0.000  -0.000  -0.000
   37        0.000  -0.000   0.000   0.000
   38       -0.000   0.000   0.000   0.000
   39        0.000  -0.000   0.000   0.000
   40       -0.000  -0.000   0.000   0.000
   41       -0.000   0.000  -0.000  -0.000
   42       -0.000   0.000   0.000   0.000
   43       -0.000  -0.000  -0.000  -0.000
   44        0.000  -0.000  -0.000  -0.000
   45        0.000   0.000   0.000   0.000
   46       -0.000   0.000   0.000   0.000
   47       -0.000   0.000   0.000   0.000
   48        0.000   0.000   0.000   0.000
   49        0.000   0.000   0.000   0.000
   50        0.000   0.000   0.000   0.000
   51       -0.000   0.000   0.000   0.000
   52       -0.000  -0.000  -0.000  -0.000
   53        0.000   0.000  -0.000   0.000
   54        0.000   0.000   0.000   0.000
   55        0.000  -0.000   0.000   0.000
   56       -0.000   0.000  -0.000  -0.000
   57       -0.000   0.000   0.000   0.000
   58        0.000  -0.000   0.000   0.000
   59       -0.000   0.000   0.000   0.000
   60       -0.000   0.000  -0.000  -0.000
[...]
  242       -0.000  -0.000   0.000  -0.000
  243        0.000  -0.000   0.000  -0.000
  244        0.000   0.000   0.000   0.000
  245       -0.000  -0.000   0.000  -0.000
  246       -0.000  -0.000   0.000  -0.000
  247       -0.000   0.000   0.000   0.000
  248        0.000   0.000   0.000   0.000
  249       -0.000  -0.000   0.000  -0.000
  250        0.000   0.000   0.000   0.000
  251        0.000  -0.000   0.000   0.000
  252        0.000  -0.000   0.000  -0.000
  253       -0.000  -0.000   0.000  -0.000
  254       -0.000   0.000   0.000   0.000
  255        0.000  -0.000   0.000  -0.000
  256        0.000  -0.000   0.000  -0.000
tot          0.000  -0.000   0.000  -0.000