 vasp.5.4.4.18Apr17-6-g9f103f2a35 (build Apr 30 2017 20:10:35) complex

 executed on             LinuxIFC date 2017.08.08  21:16:50

 INCAR:
 POTCAR:   PAW_PBE Ti_pv 07Sep2000
 POTCAR:   PAW_PBE O 08Apr2002
 POTCAR:    PAW_PBE F 08Apr2002
 POTCAR:   PAW_PBE Ti_pv 07Sep2000
   VRHFIN =Ti: d3 s1

   TITEL  = PAW_PBE Ti_pv 07Sep2000
   POMASS =   47.880; ZVAL   =   10.000    mass and valenz
   ENMAX  =  222.338; ENMIN  =  166.753 eV
   QCUT   =   -4.042; QGAM   =    8.085    optimization parameters

   Description
     l     E      TYP  RCUT    TYP  RCUT
     1   .000     23  2.300
     1  -.100     23  2.300
     2   .000     23  2.500
     2   .000     23  2.500
     0   .000     23  2.500
     0  1.500     23  2.500
     3   .000      7   .000

 POTCAR:   PAW_PBE O 08Apr2002
   VRHFIN =O: s2p4

   TITEL  = PAW_PBE O 08Apr2002
   POMASS =   16.000; ZVAL   =    6.000    mass and valenz
   ENMAX  =  400.000; ENMIN  =  300.000 eV
   QCUT   =   -5.520; QGAM   =   11.041    optimization parameters

   Description
     l     E      TYP  RCUT    TYP  RCUT
     0   .000     23  1.200
     0  -.700     23  1.200
     1   .000     23  1.520
     1   .600     23  1.520
     2   .000      7  1.500

 POTCAR:    PAW_PBE F 08Apr2002
   VRHFIN =F: s2p5

   TITEL  = PAW_PBE F 08Apr2002
   POMASS =   18.998; ZVAL   =    7.000    mass and valenz
   ENMAX  =  400.000; ENMIN  =  300.000 eV

 Optimization of the real space projectors (new method)

 maximal supplied QI-value         = 15.12
 optimisation between [QCUT,QGAM] = [ 13.45, 27.06] = [ 50.69,205.06] Ry
 Optimized for a Real-space Cutoff    1.49 Angstroem

   l    n(q)    QCUT    max X(q) W(low)/X(q) W(high)/X(q)  e(spline)
   1     12    13.455     4.841    0.13E-05    0.83E-06    0.56E-07
   1     12    13.455     5.701    0.32E-04    0.25E-04    0.17E-06
   2     11    13.455     4.569    0.64E-05    0.34E-05    0.50E-07
   2     11    13.455    32.276    0.49E-04    0.38E-04    0.46E-06
   0     12    13.455    30.046    0.17E-04    0.41E-05    0.51E-07
   0     12    13.455    45.433    0.12E-04    0.27E-04    0.38E-06
 Optimization of the real space projectors (new method)

[...]

   l    n(q)    QCUT    max X(q) W(low)/X(q) W(high)/X(q)  e(spline)
   0      9    13.368     4.192    0.20E-04    0.58E-05    0.56E-07
   0      9    13.368     8.473    0.60E-04    0.52E-04    0.21E-06
   1      9    13.368     2.474    0.22E-04    0.17E-04    0.28E-07
   1      9    13.368     3.912    0.94E-04    0.97E-04    0.20E-06
 Optimization of the real space projectors (new method)

 maximal supplied QI-value         = 24.76
 optimisation between [QCUT,QGAM] = [ 13.37, 26.98] = [ 50.04,203.89] Ry
 Optimized for a Real-space Cutoff    1.17 Angstroem

   l    n(q)    QCUT    max X(q) W(low)/X(q) W(high)/X(q)  e(spline)
   0      9    13.368    14.049    0.39E-04    0.34E-04    0.16E-06
   0      9    13.368     8.945    0.54E-04    0.47E-04    0.20E-06
   1      9    13.368     7.086    0.99E-04    0.10E-03    0.23E-06
   1      9    13.368     6.747    0.86E-04    0.89E-04    0.21E-06

 PAW_PBE Ti_pv 07Sep2000                :
 PAW_PBE O 08Apr2002                    :
  PAW_PBE F 08Apr2002                   :

 POSCAR: TiOF2 2x2x2 config 0002
  positions in direct lattice
  velocities in cartesian coordinates
 exchange correlation table for  LEXCH =       14
   RHO(1)=    0.500       N(1)  =     2000
   RHO(2)=  100.500       N(2)  =     4000

 VTST: version 3.1, (03/28/14)

 CHAIN: initializing optimizer

 OPT: Using VASP Conjugate-Gradient optimizer
 CHAIN: Read ICHAIN            0

 POSCAR: TiOF2 2x2x2 config 0002
  positions in direct lattice
  velocities in cartesian coordinates

 ion  position               nearest neighbor table
   1  1.000  0.001  0.991-  11 1.79  10 1.93  25 1.95  27 1.95  21 2.00  17 2.00
   2  1.000  1.000  0.490-  10 1.79  26 1.95  11 1.95  28 1.95  22 1.98  18 1.98
   3  0.000  0.502  0.992-  13 1.79  12 1.94  27 1.97  25 1.97  19 1.97  23 1.97
   4  1.000  0.499  0.491-  12 1.79  13 1.95  24 1.96  20 1.96  26 1.96  28 1.97
   5  0.500  1.000  0.986-  14 1.74  29 1.94  31 1.95  17 1.96  21 1.96  32 1.98
   6  0.500  0.977  0.502-   9 1.77  14 1.88  32 1.96  18 1.98  22 1.98  30 2.10
   7  0.500  0.503  0.995-  16 1.80  15 1.91  23 1.98  19 1.98  29 2.01  31 2.02
   8  0.500  0.503  0.492-  15 1.83   9 1.95  16 1.97  20 1.99  24 1.99  30 2.04
   9  0.500  0.752  0.473-   6 1.77   8 1.95
  10  1.000  0.999  0.250-   2 1.79   1 1.93
  11  1.000  0.001  0.752-   1 1.79   2 1.95
  12  1.000  0.502  0.251-   4 1.79   3 1.94
  13  0.000  0.500  0.752-   3 1.79   4 1.95
  14  0.500  0.973  0.754-   5 1.74   6 1.88
  15  0.500  0.476  0.249-   8 1.83   7 1.91
  16  0.500  0.521  0.755-   7 1.80   8 1.97
  17  0.253  0.002  0.006-   5 1.96   1 2.00
  18  0.251  0.001  0.498-   6 1.98   2 1.98
  19  0.249  0.503  0.003-   3 1.97   7 1.98
  20  0.248  0.496  0.504-   4 1.96   8 1.99
  21  0.747  0.002  0.006-   5 1.96   1 2.00
  22  0.749  0.001  0.498-   6 1.98   2 1.98
  23  0.751  0.503  0.003-   3 1.97   7 1.98
  24  0.752  0.496  0.504-   4 1.96   8 1.99
  25  0.000  0.250  0.004-   1 1.95   3 1.97
  26  1.000  0.249  0.503-   2 1.95   4 1.96
  27  1.000  0.752  0.003-   1 1.95   3 1.97
  28  0.000  0.751  0.505-   2 1.95   4 1.97
  29  0.500  0.247  0.975-   5 1.94   7 2.01
  30  0.500  0.245  0.525-   8 2.04   6 2.10
  31  0.500  0.757  0.039-   5 1.95   7 2.02
  32  0.500  0.036  0.248-   6 1.96   5 1.98

IMPORTANT INFORMATION: All symmetrisations will be switched off!
NOSYMM: (Re-)initialisation of all symmetry stuff for point group C_1.

 KPOINTS: Title

Automatic generation of k-mesh.
Space group operators:
 irot       det(A)        alpha          n_x          n_y          n_z        tau_x        tau_y        tau_z
    1     1.000000     0.000001     1.000000     0.000000     0.000000     0.000000     0.000000     0.000000

 Subroutine IBZKPT returns following result:

 Found     32 irreducible k-points:

 Following reciprocal coordinates:
            Coordinates               Weight
  0.125000  0.125000  0.125000      2.000000
  0.375000  0.125000  0.125000      2.000000
 -0.375000  0.125000  0.125000      2.000000
 -0.125000  0.125000  0.125000      2.000000
  0.125000  0.375000  0.125000      2.000000
  0.375000  0.375000  0.125000      2.000000
 -0.375000  0.375000  0.125000      2.000000
 -0.125000  0.375000  0.125000      2.000000
  0.125000 -0.375000  0.125000      2.000000
  0.375000 -0.375000  0.125000      2.000000
 -0.375000 -0.375000  0.125000      2.000000
 -0.125000 -0.375000  0.125000      2.000000
  0.125000 -0.125000  0.125000      2.000000
  0.375000 -0.125000  0.125000      2.000000
 -0.375000 -0.125000  0.125000      2.000000
 -0.125000 -0.125000  0.125000      2.000000
  0.125000  0.125000  0.375000      2.000000
  0.375000  0.125000  0.375000      2.000000
 -0.375000  0.125000  0.375000      2.000000
 -0.125000  0.125000  0.375000      2.000000
  0.125000  0.375000  0.375000      2.000000
  0.375000  0.375000  0.375000      2.000000
 -0.375000  0.375000  0.375000      2.000000
 -0.125000  0.375000  0.375000      2.000000
  0.125000 -0.375000  0.375000      2.000000
  0.375000 -0.375000  0.375000      2.000000
 -0.375000 -0.375000  0.375000      2.000000
 -0.125000 -0.375000  0.375000      2.000000
  0.125000 -0.125000  0.375000      2.000000
  0.375000 -0.125000  0.375000      2.000000
 -0.375000 -0.125000  0.375000      2.000000
 -0.125000 -0.125000  0.375000      2.000000

 Following cartesian coordinates:
            Coordinates               Weight
  0.015839  0.015976  0.016753      2.000000
  0.047517  0.015977  0.016753      2.000000
 -0.047516  0.015975  0.016753      2.000000
 -0.015838  0.015976  0.016753      2.000000
  0.015840  0.047915  0.016765      2.000000
  0.047517  0.047916  0.016766      2.000000
 -0.047516  0.047915  0.016765      2.000000
 -0.015838  0.047915  0.016765      2.000000
  0.015838 -0.047902  0.016729      2.000000
  0.047516 -0.047902  0.016729      2.000000
 -0.047517 -0.047903  0.016728      2.000000
 -0.015839 -0.047903  0.016728      2.000000
  0.015839 -0.015963  0.016741      2.000000
  0.047516 -0.015963  0.016741      2.000000
 -0.047517 -0.015964  0.016741      2.000000
 -0.015839 -0.015964  0.016741      2.000000
  0.015839  0.015989  0.050247      2.000000
  0.047517  0.015989  0.050247      2.000000
 -0.047516  0.015988  0.050247      2.000000
 -0.015838  0.015988  0.050247      2.000000
  0.015840  0.047928  0.050259      2.000000
  0.047517  0.047928  0.050260      2.000000
 -0.047515  0.047927  0.050259      2.000000
 -0.015838  0.047927  0.050259      2.000000
  0.015838 -0.047890  0.050223      2.000000
  0.047516 -0.047890  0.050223      2.000000
 -0.047517 -0.047891  0.050222      2.000000
 -0.015839 -0.047890  0.050222      2.000000
  0.015839 -0.015951  0.050235      2.000000
  0.047516 -0.015950  0.050235      2.000000
 -0.047516 -0.015952  0.050235      2.000000
 -0.015839 -0.015951  0.050235      2.000000

 SYSTEM =  LTO
 POSCAR =  TiOF2 2x2x2 config 0002

 Startparameter for this run:
   NWRITE =      2    write-flag & timer
   PREC   = accura    normal or accurate (medium, high low for compatibility)
   ISTART =      1    job   : 0-new  1-cont  2-samecut
   ICHARG =      0    charge: 1-file 2-atom 10-const
   ISPIN  =      2    spin polarized calculation?
   LNONCOLLINEAR =      F non collinear calculations
   LSORBIT =      F    spin-orbit coupling
   INIWAV =      1    electr: 0-lowe 1-rand  2-diag
   LASPH  =      T    aspherical Exc in radial PAW
   METAGGA=      F    non-selfconsistent MetaGGA calc.

 Electronic Relaxation 1
   ENCUT  =  700.0 eV  51.45 Ry    7.17 a.u.  17.03 16.89 16.10*2*pi/ulx,y,z
   ENINI  =  700.0     initial cutoff
   ENAUG  =  613.6 eV  augmentation charge cutoff
   NELM   =     60;   NELMIN=  2; NELMDL=  0     # of ELM steps
   EDIFF  = 0.1E-05   stopping-criterion for ELM
   LREAL  =      T    real-space projection
   NLSPLINE    = F    spline interpolate recip. space projectors
   LCOMPAT=      F    compatible to vasp.4.4
   GGA_COMPAT  = T    GGA compatible to vasp.4.4-vasp.4.6
   LMAXPAW     = -100 max onsite density
   LMAXMIX     =    4 max onsite mixed and CHGCAR
   VOSKOWN=      0    Vosko Wilk Nusair interpolation
   ROPT   =   -0.00010  -0.00010  -0.00010
 Ionic relaxation
   EDIFFG = -.1E-01   stopping-criterion for IOM
   NSW    =    100    number of steps for IOM
   NBLOCK =      1;   KBLOCK =    100    inner block; outer block
   IBRION =      2    ionic relax: 0-MD 1-quasi-New 2-CG
   NFREE  =      1    steps in history (QN), initial steepest desc. (CG)
   ISIF   =      3    stress and relaxation
   IWAVPR =     11    prediction:  0-non 1-charg 2-wave 3-comb
   ISYM   =      0    0-nonsym 1-usesym 2-fastsym
   LCORR  =      T    Harris-Foulkes like correction to forces

   POTIM  = 0.5000    time-step for ionic-motion
   TEIN   =    0.0    initial temperature
   TEBEG  =    0.0;   TEEND  =   0.0 temperature during run
   SMASS  =  -3.00    Nose mass-parameter (am)
   estimated Nose-frequenzy (Omega)   =  0.10E-29 period in steps =****** mass=  -0.142E-26a.u.
[...]
     42     -16.7190      1.00000
     43     -16.5154      1.00000
     44     -16.4176      1.00000
     45     -16.2031      1.00000
     46     -15.8252      1.00000
     47     -15.6206      1.00000
     48     -15.4190      1.00000
     49      -7.0370      1.00000
     50      -6.8414      1.00000
     51      -6.8272      1.00000
     52      -6.8053      1.00000
     53      -6.6561      1.00000
     54      -6.4970      1.00000
     55      -6.4413      1.00000
     56      -6.3772      1.00000
     57      -5.7448      1.00000
     58      -5.7110      1.00000
     59      -5.6236      1.00000
     60      -5.4572      1.00000
[...]
    146       3.9870      0.00000
    147       4.0179      0.00000
    148       4.1692      0.00000
    149       4.2309      0.00000
    150       4.3860      0.00000
    151       4.3884      0.00000
    152       4.5104      0.00000
    153       4.9054      0.00000
    154       5.0588      0.00000
    155       5.2765      0.00000
    156       5.4549      0.00000
    157       5.8723      0.00000
    158       6.2051      0.00000
    159       6.5808      0.00000
    160       6.9983      0.00000

[...]

 spin component 2

[...]

 k-point    32 :      -0.1250   -0.1250    0.3750
  band No.  band energies     occupation
      1     -35.4112      1.00000
      2     -35.3771      1.00000
      3     -35.2498      1.00000
      4     -35.0363      1.00000
      5     -35.0137      1.00000
      6     -34.9916      1.00000
      7     -34.9785      1.00000
      8     -34.8161      1.00000
      9     -34.8154      1.00000
     10     -34.7874      1.00000
     11     -34.7851      1.00000
     12     -34.7723      1.00000
     13     -34.7021      1.00000
     14     -34.7014      1.00000
     15     -34.6877      1.00000
     16     -34.6453      1.00000
     17     -34.6076      1.00000
     18     -34.5680      1.00000
     19     -34.4850      1.00000
     20     -34.4364      1.00000
     21     -34.4010      1.00000
     22     -34.3382      1.00000
     23     -34.2713      1.00000
     24     -34.1447      1.00000
     25     -23.4643      1.00000
     26     -23.2520      1.00000
     27     -23.2235      1.00000
     28     -23.2066      1.00000
     29     -23.0552      1.00000
     30     -22.9720      1.00000
     31     -22.9345      1.00000
     32     -22.8638      1.00000
     33     -22.8363      1.00000
     34     -22.7992      1.00000
     35     -22.7889      1.00000
     36     -22.7144      1.00000
     37     -22.6920      1.00000
     38     -22.5702      1.00000
     39     -22.4045      1.00000
     40     -21.7179      1.00000
     41     -17.0278      1.00000
     42     -16.4783      1.00000
     43     -16.3618      1.00000
     44     -16.2743      1.00000
     45     -16.1089      1.00000
     46     -16.0398      1.00000
     47     -15.9051      1.00000
     48     -15.6780      1.00000
     49      -7.0349      1.00000
     50      -6.8345      1.00000
     51      -6.8281      1.00000
     52      -6.8042      1.00000
     53      -6.6311      1.00000
     54      -6.4960      1.00000
     55      -6.3779      1.00000
     56      -6.1365      1.00000
     57      -5.7270      1.00000
     58      -5.7083      1.00000
     59      -5.6149      1.00000
     60      -5.4226      1.00000
[...]
    146       3.7939      0.00000
    147       3.8405      0.00000
    148       3.9281      0.00000
    149       3.9526      0.00000
    150       4.0693      0.00000
    151       4.2219      0.00000
    152       4.8444      0.00000
    153       5.1765      0.00000
    154       5.3883      0.00000
    155       5.6327      0.00000
    156       5.7577      0.00000
    157       5.8143      0.00000
    158       6.1921      0.00000
    159       6.5619      0.00000
    160       6.7511      0.00000

 soft charge-density along one line, spin component           1
         0         1         2         3         4         5         6         7         8         9
 total charge-density along one line

 soft charge-density along one line, spin component           2
         0         1         2         3         4         5         6         7         8         9
 total charge-density along one line

------------------------ aborting loop because EDIFF is reached ----------------------------------------

 total charge

# of ion       s       p       d       tot
    1        0.305   6.474   1.749   8.529
    2        0.307   6.474   1.740   8.521
    3        0.307   6.476   1.752   8.536
    4        0.308   6.475   1.744   8.527
    5        0.317   6.479   1.789   8.585
    6        0.317   6.458   1.790   8.565
    7        0.298   6.464   1.745   8.508
    8        0.304   6.450   1.700   8.455
    9        1.569   3.447   0.000   5.016
   10        1.572   3.457   0.000   5.028
   11        1.571   3.452   0.000   5.023
   12        1.571   3.455   0.000   5.026
   13        1.571   3.454   0.000   5.025
   14        1.575   3.480   0.000   5.055
   15        1.570   3.451   0.000   5.021
   16        1.570   3.443   0.000   5.013
   17        1.729   4.382   0.000   6.111
   18        1.729   4.382   0.000   6.110
   19        1.729   4.383   0.000   6.113
   20        1.729   4.381   0.000   6.111
   21        1.729   4.382   0.000   6.111
   22        1.729   4.382   0.000   6.110
   23        1.729   4.383   0.000   6.113
   24        1.729   4.381   0.000   6.111
   25        1.730   4.388   0.000   6.118
   26        1.730   4.388   0.000   6.118
   27        1.730   4.388   0.000   6.118
   28        1.730   4.387   0.000   6.116
   29        1.730   4.383   0.000   6.113
   30        1.728   4.362   0.000   6.090
   31        1.730   4.379   0.000   6.109
   32        1.732   4.389   0.000   6.121
tot         42.704 149.510  14.011 206.225

 magnetization (x)

[...]

  FORCE on cell =-STRESS in cart. coord.  units (eV):
  Direction    XX          YY          ZZ          XY          YZ          ZX
  Alpha Z   759.44770   759.44770   759.44770
  Ewald   -4414.92260 -4317.31357 -4107.24559    -0.12706     2.96916    -0.03401
  Hartree  2649.68244  2718.65465  2835.65921    -0.06655    -0.07138    -0.02145
  E(xc)   -1231.78512 -1231.90244 -1232.62173    -0.00004    -0.02565     0.00000
  Local   -1875.27455 -2056.35752 -2471.77424     0.19133    -3.58868     0.05576
  n-local  -973.86491  -971.14154  -957.25075    -0.00124     0.10088    -0.00025
  augment   743.13648   748.25094   779.46841     0.00011     0.43553    -0.00024
  Kinetic  4343.56343  4350.32463  4394.30772     0.00508     0.18754     0.00039
  Fock        0.00000     0.00000     0.00000     0.00000     0.00000     0.00000
  Total      -0.01713    -0.03717    -0.00927     0.00163     0.00740     0.00020
  in kB      -0.05954    -0.12915    -0.03222     0.00568     0.02572     0.00071

 VOLUME and BASIS-vectors are now :
  energy-cutoff  :      700.00
  volume of cell :      461.08
      direct lattice vectors                 reciprocal lattice vectors
     7.892012896 -0.000109306 -0.000041350     0.126710386  0.000001756  0.000000663
    -0.000108484  7.827349725 -0.002923735     0.000001770  0.127757182  0.000049101
    -0.000039014 -0.002868663  7.464036751     0.000000703  0.000050044  0.133975780

  length of vectors
     7.892012897  7.827350271  7.464037302     0.126710386  0.127757191  0.133975789

 FORCES acting on ions
    electron-ion (+dipol)            ewald-force                    non-local-force                 convergence-correction
   -.113E-01 -.150E+01 -.621E+00   0.113E-01 0.147E+01 0.103E+01   0.263E-03 0.332E-01 -.402E+00   -.592E-04 0.138E-02 0.251E-02
   -.182E-02 0.401E+01 -.250E+02   0.185E-02 -.398E+01 0.253E+02   0.114E-03 -.303E-01 -.277E+00   -.200E-04 -.154E-03 -.482E-02
   -.170E-02 0.187E+01 -.942E+01   0.165E-02 -.183E+01 0.979E+01   -.598E-04 -.400E-01 -.373E+00   0.595E-05 -.396E-03 0.174E-02
   -.193E-01 -.535E+01 -.160E+02   0.191E-01 0.529E+01 0.163E+02   0.590E-03 0.598E-01 -.313E+00   -.145E-04 -.564E-03 -.101E-02
   -.114E-01 0.742E+01 0.156E+02   0.111E-01 -.733E+01 -.157E+02   0.229E-03 -.926E-01 0.429E-01   0.291E-04 0.344E-02 0.698E-02
   0.951E-05 0.588E+01 -.240E+02   0.198E-04 -.655E+01 0.250E+02   0.103E-03 0.662E+00 -.984E+00   0.181E-04 0.111E-02 -.469E-02
   0.122E-01 -.729E+01 -.253E+00   -.121E-01 0.707E+01 0.615E+00   -.331E-03 0.212E+00 -.368E+00   0.260E-04 -.203E-02 0.544E-02
   -.128E-01 -.160E+02 -.244E+02   0.128E-01 0.168E+02 0.243E+02   0.407E-03 -.841E+00 0.998E-01   0.416E-04 -.250E-02 -.574E-02
   0.121E-02 0.585E+02 0.296E+02   -.156E-02 -.640E+02 -.332E+02   0.316E-03 0.550E+01 0.355E+01   0.712E-04 0.136E-02 -.394E-02
   -.482E-02 0.249E+01 0.316E+02   0.482E-02 -.264E+01 -.361E+02   0.791E-04 0.143E+00 0.443E+01   -.690E-05 -.517E-03 -.278E-02
   0.219E-02 -.332E+00 0.408E+02   -.229E-02 0.393E+00 -.457E+02   0.138E-03 -.606E-01 0.495E+01   -.119E-04 0.138E-02 0.142E-02
   0.252E-03 -.272E+01 0.329E+02   -.989E-03 0.288E+01 -.375E+02   0.873E-03 -.157E+00 0.453E+01   0.477E-04 0.700E-03 0.264E-03
   -.502E-02 0.386E+00 0.396E+02   0.549E-02 -.475E+00 -.445E+02   -.443E-03 0.886E-01 0.488E+01   -.407E-04 -.135E-02 -.164E-02
   -.914E-02 0.461E+02 0.505E+02   0.931E-02 -.493E+02 -.553E+02   -.845E-04 0.320E+01 0.477E+01   0.360E-04 0.993E-03 0.312E-02
   0.696E-02 0.454E+02 0.751E+01   -.699E-02 -.492E+02 -.101E+02   0.369E-04 0.376E+01 0.261E+01   -.196E-04 -.251E-03 -.452E-02
   -.134E-01 -.415E+02 0.524E+02   0.145E-01 0.440E+02 -.573E+02   -.129E-02 -.248E+01 0.489E+01   0.538E-04 -.205E-02 0.596E-02
   0.258E+02 0.107E+00 -.715E+01   -.281E+02 0.878E-01 0.104E+02   0.228E+01 -.197E+00 -.324E+01   0.227E-02 0.697E-03 0.176E-02
   0.149E+01 -.861E+01 -.103E+02   -.144E+01 0.110E+02 0.107E+02   -.535E-01 -.237E+01 -.389E+00   0.688E-03 0.732E-03 -.182E-02
   -.483E+01 -.254E+01 -.566E+01   0.520E+01 0.272E+01 0.763E+01   -.382E+00 -.175E+00 -.198E+01   0.283E-02 -.150E-02 0.189E-02
   -.187E+02 0.174E+01 -.153E+02   0.201E+02 -.260E+01 0.175E+02   -.144E+01 0.855E+00 -.220E+01   -.268E-02 -.276E-03 -.154E-02
   -.258E+02 -.134E+00 -.714E+01   0.281E+02 0.352E+00 0.104E+02   -.228E+01 -.220E+00 -.324E+01   -.229E-02 0.736E-03 0.176E-02
   -.148E+01 -.859E+01 -.103E+02   0.142E+01 0.110E+02 0.107E+02   0.557E-01 -.237E+01 -.388E+00   -.738E-03 0.646E-03 -.176E-02
   0.481E+01 -.229E+01 -.565E+01   -.518E+01 0.243E+01 0.762E+01   0.380E+00 -.146E+00 -.198E+01   -.278E-02 -.150E-02 0.181E-02
   0.187E+02 0.172E+01 -.153E+02   -.202E+02 -.257E+01 0.175E+02   0.145E+01 0.854E+00 -.219E+01   0.246E-02 -.235E-03 -.147E-02
   -.139E+00 -.740E+01 -.938E+01   0.153E+00 0.842E+01 0.120E+02   -.135E-01 -.102E+01 -.259E+01   0.699E-04 -.191E-02 0.203E-02
   -.197E-02 -.595E+01 -.152E+02   0.155E-02 0.674E+01 0.176E+02   0.479E-03 -.788E+00 -.237E+01   0.706E-05 0.228E-02 -.620E-03
   0.140E+00 0.648E+01 -.595E+01   -.154E+00 -.732E+01 0.818E+01   0.145E-01 0.837E+00 -.224E+01   -.758E-04 0.549E-03 0.180E-02
   -.131E-01 0.737E+01 -.182E+02   0.155E-01 -.830E+01 0.209E+02   -.238E-02 0.923E+00 -.268E+01   -.477E-04 -.168E-02 -.510E-03
   0.134E+00 -.376E+02 0.401E+02   -.146E+00 0.414E+02 -.430E+02   0.114E-01 -.375E+01 0.284E+01   -.289E-04 0.333E-03 -.536E-03
   -.959E-02 -.706E+01 -.451E+02   0.114E-01 0.490E+01 0.488E+02   -.190E-02 0.217E+01 -.370E+01   -.867E-05 -.501E-03 0.159E-04
   -.123E+00 0.370E+02 -.518E+02   0.133E+00 -.405E+02 0.607E+02   -.971E-02 0.354E+01 -.894E+01   0.822E-04 0.797E-03 0.283E-02
   0.761E-02 -.704E+02 -.160E+02   -.767E-02 0.797E+02 0.156E+02   0.412E-04 -.922E+01 0.378E+00   -.116E-04 0.149E-02 -.435E-02
   -.810E-02 0.112E+01 0.288E+01   -.277E-12 -.853E-13 0.213E-13   0.893E-02 -.113E+01 -.288E+01   -.994E-04 0.121E-02 -.406E-03

 POSITION                                       TOTAL-FORCE (eV/Angst)
      7.89197      0.00853      7.39958         0.000131      0.000414      0.005082
      7.89187      7.82461      3.65709         0.000109      0.000413      0.005311
     -0.00008      3.92292      7.40042        -0.000126     -0.000051     -0.002728
      7.89191      3.90745      3.66665         0.000321     -0.000561     -0.000916
      3.94587      7.82443      7.35404        -0.000008     -0.003962      0.000128
      3.94586      7.64350      3.74580         0.000128     -0.003048     -0.000726
      3.94592      3.93190      7.42503        -0.000213     -0.004756     -0.001720
      3.94590      3.93519      3.67179         0.000438      0.002346     -0.005558
      3.94587      5.88478      3.53197         0.000013      0.001238     -0.003518
      7.89189      7.82169      1.86502         0.000049     -0.000954     -0.001708
      7.89197      0.00623      5.61138         0.000011      0.001775     -0.002207
      7.89191      3.92527      1.87441         0.000160      0.001469      0.000018
     -0.00007      3.91169      5.61275        -0.000041     -0.001489      0.002699
      3.94588      7.61408      5.62652         0.000097     -0.002977     -0.000509
      3.94592      3.72114      1.85682        -0.000033      0.003635      0.004924
      3.94598      4.07681      5.63442        -0.000099     -0.001789      0.003911
      1.99702      0.01214      0.04565         0.001840     -0.000819     -0.001621
      1.97857      0.00595      3.71566        -0.000673     -0.000707     -0.000845
      1.96894      3.94030      0.02410        -0.002035     -0.000030      0.000199
      1.96042      3.88351      3.75717        -0.002229      0.000646      0.000139
      5.89502      0.01311      0.04562        -0.002135     -0.000561     -0.001716
      5.91340      0.00588      3.71558         0.000434     -0.000838     -0.000739
      5.92295      3.93896      0.02403         0.002555     -0.000148      0.000233
      5.93149      3.88350      3.75711         0.001321      0.000756      0.000292
      0.00057      1.95930      0.03180         0.000279     -0.002513      0.003510
      7.89194      1.94516      3.75178         0.000040     -0.000051      0.000419
      7.89132      5.88963      0.01667        -0.000079      0.000987      0.000284
     -0.00003      5.87499      3.76400        -0.000102     -0.000019      0.003953
      3.94542      1.93099      7.27938        -0.000236      0.004400     -0.006447
      3.94602      1.91393      3.91685        -0.000114      0.000597      0.000339
      3.94640      5.92342      0.28796         0.000244      0.003571      0.000786
      3.94598      0.28426      1.84889        -0.000049      0.003026     -0.001268
    total drift:                                0.000728     -0.000359      0.000612

  FREE ENERGIE OF THE ION-ELECTRON SYSTEM (eV)
  free  energy   TOTEN  =      -211.76543471 eV

  energy  without entropy=     -211.76543471  energy(sigma->0) =     -211.76543471

 stress matrix after NEB project (eV)
     -0.01713      0.00163      0.00020
      0.00163     -0.03717      0.00740
      0.00020      0.00740     -0.00927
  FORCES: max atom, RMS     0.007809    0.003583
  FORCE total and by dimension    0.020270    0.006447
  Stress total and by dimension    0.043312    0.037167

 reached required accuracy - stopping structural energy minimisation
 writing wavefunctions

 total charge

[...]

 magnetization (x)

# of ion       s       p       d       tot
    1       -0.000   0.000   0.000   0.000
    2       -0.000   0.000   0.000   0.000
    3       -0.000  -0.000   0.000  -0.000
    4       -0.000   0.000   0.000   0.000
    5        0.000   0.000  -0.000   0.000
    6        0.000   0.000  -0.000  -0.000
    7       -0.000  -0.000  -0.000  -0.000
    8       -0.000  -0.000  -0.000  -0.000
    9       -0.000   0.000   0.000   0.000
   10        0.000  -0.000   0.000  -0.000
   11       -0.000  -0.000   0.000  -0.000
   12        0.000  -0.000   0.000  -0.000
   13        0.000  -0.000   0.000   0.000
   14       -0.000   0.000   0.000   0.000
   15       -0.000   0.000   0.000   0.000
   16       -0.000   0.000   0.000   0.000
   17       -0.000  -0.000   0.000  -0.000
   18        0.000  -0.000   0.000  -0.000
   19       -0.000   0.000   0.000  -0.000
   20        0.000  -0.000   0.000  -0.000
   21       -0.000  -0.000   0.000  -0.000
   22        0.000  -0.000   0.000  -0.000
   23       -0.000   0.000   0.000  -0.000
   24        0.000  -0.000   0.000  -0.000
   25       -0.000   0.000   0.000   0.000
   26       -0.000   0.000   0.000   0.000
   27        0.000   0.000   0.000   0.000
   28       -0.000   0.000   0.000   0.000
   29        0.000  -0.000   0.000  -0.000
   30        0.000   0.000   0.000   0.000
   31        0.000   0.000   0.000   0.000
   32        0.000   0.000   0.000   0.000
tot         -0.000  -0.000   0.000  -0.000