 vasp.5.4.4.18Apr17-6-g9f103f2a35 (build Jul 16 2019 12:12:28) complex

 executed on             LinuxIFC date 2020.01.06  13:08:12

 INCAR:
 POTCAR:    PAW_PBE Li_sv 10Sep2004
 POTCAR:    PAW_PBE Ti_pv 07Sep2000
 POTCAR:    PAW_PBE O 08Apr2002
 POTCAR:    PAW_PBE F 08Apr2002
 POTCAR:    PAW_PBE Li_sv 10Sep2004
   VRHFIN =Li: 1s2s2p

   TITEL  = PAW_PBE Li_sv 10Sep2004
   POMASS =    7.010; ZVAL   =    3.000    mass and valenz
   ENMAX  =  499.034; ENMIN  =  374.276 eV

 POTCAR:    PAW_PBE Ti_pv 07Sep2000
   VRHFIN =Ti: d3 s1

   TITEL  = PAW_PBE Ti_pv 07Sep2000
   POMASS =   47.880; ZVAL   =   10.000    mass and valenz
   ENMAX  =  222.335; ENMIN  =  166.751 eV

 POTCAR:    PAW_PBE O 08Apr2002
   VRHFIN =O: s2p4

   TITEL  = PAW_PBE O 08Apr2002
   POMASS =   16.000; ZVAL   =    6.000    mass and valenz
   ENMAX  =  400.000; ENMIN  =  300.000 eV

 POTCAR:    PAW_PBE F 08Apr2002
   VRHFIN =F: s2p5

   TITEL  = PAW_PBE F 08Apr2002
   POMASS =   18.998; ZVAL   =    7.000    mass and valenz
   ENMAX  =  400.000; ENMIN  =  300.000 eV

 Optimization of the real space projectors (new method)

 maximal supplied QI-value         = 22.11
 optimisation between [QCUT,QGAM] = [ 11.28, 22.77] = [ 35.61,145.23] Ry
 Optimized for a Real-space Cutoff    1.31 Angstroem

   l    n(q)    QCUT    max X(q) W(low)/X(q) W(high)/X(q)  e(spline)
   0      9    11.276    10.506    0.19E-04    0.17E-04    0.32E-07
   0      9    11.276     8.367    0.38E-04    0.40E-04    0.65E-07
   1      8    11.276     8.983    0.55E-04    0.98E-04    0.20E-06
 Optimization of the real space projectors (new method)

[...]

   l    n(q)    QCUT    max X(q) W(low)/X(q) W(high)/X(q)  e(spline)
   0      8    11.387    20.381    0.89E-04    0.31E-03    0.27E-06
   0      8    11.387    15.268    0.93E-04    0.32E-03    0.29E-06
   1      8    11.387     5.964    0.53E-04    0.28E-03    0.29E-06
   1      8    11.387     5.382    0.37E-04    0.22E-03    0.26E-06
 Optimization of the real space projectors (new method)

 maximal supplied QI-value         = 24.76
 optimisation between [QCUT,QGAM] = [ 11.39, 22.77] = [ 36.31,145.25] Ry
 Optimized for a Real-space Cutoff    1.20 Angstroem

   l    n(q)    QCUT    max X(q) W(low)/X(q) W(high)/X(q)  e(spline)
   0      8    11.387    14.049    0.69E-04    0.23E-03    0.18E-06
   0      8    11.387     8.945    0.88E-04    0.30E-03    0.26E-06
   1      8    11.387     7.086    0.62E-04    0.27E-03    0.27E-06
   1      8    11.387     6.747    0.46E-04    0.23E-03    0.25E-06

  PAW_PBE Li_sv 10Sep2004               :
  PAW_PBE Ti_pv 07Sep2000               :
  PAW_PBE O 08Apr2002                   :
  PAW_PBE F 08Apr2002                   :

 POSCAR: config 59
  positions in direct lattice
  velocities in cartesian coordinates
 exchange correlation table for  LEXCH =       14
   RHO(1)=    0.500       N(1)  =     2000
   RHO(2)=  100.500       N(2)  =     4000

 VTST: version 3.2, (02/03/18)

 CHAIN: initializing optimizer

 OPT: Using VASP QUASI-newton optimizer
 CHAIN: Read ICHAIN            0

 POSCAR: config 59
  positions in direct lattice
  velocities in cartesian coordinates

 ion  position               nearest neighbor table
   1  0.874  0.564  0.623- 104 1.95 108 1.99  79 2.07  66 2.13   5 2.77  49 2.78  13 2.80  41 2.86

   2  0.995  0.994  0.995- 118 1.87  68 1.88 103 1.89 171 2.03 130 2.05 212 2.05
   3  0.999  0.990  0.494- 119 1.82  67 1.82 172 1.95 193 1.97 131 2.01 213 2.10
   4  0.006  0.495  0.998-  89 1.84 117 1.86 138 1.94 132 1.98 214 2.02 194 2.03
   5  0.996  0.505  0.505- 104 1.78  66 1.89 215 1.96 137 2.01 173 2.02 223 2.03   1 2.77
   6  0.494  0.993  0.000- 101 1.83 121 1.85 140 1.96 133 1.97 216 2.03 174 2.03
   7  0.502  0.010  0.498- 112 1.78 191 1.92 134 1.92 139 1.93 175 1.94 225 2.04
   8  0.504  0.495  0.996-  70 1.88 120 1.88  90 1.89 192 2.03 135 2.04 217 2.06
   9  0.491  0.500  0.495- 102 1.81  69 1.86 176 2.00 224 2.00 218 2.01 136 2.02
  10  0.006  0.002  0.256-  91 1.83  67 1.86 219 1.96 227 1.97 130 2.00 197 2.06
  11  0.003  0.007  0.758-  68 1.79 113 1.84 177 1.95 198 1.99 228 2.07 131 2.07
  12  0.993  0.493  0.250- 107 1.82 122 1.86 137 1.94 132 1.96 220 2.02 178 2.03
  13  0.995  0.501  0.743-  66 1.83 108 1.85 226 1.93 221 1.99 138 2.02 179 2.02   1 2.80
  14  0.505  0.009  0.251- 114 1.82  92 1.83 133 1.93 139 1.99 195 2.01 231 2.06
  15  0.494  0.007  0.753- 105 1.81 115 1.84 140 1.94 134 2.00 232 2.02 180 2.05
  16  0.492  0.496  0.257-  69 1.82 106 1.84 229 1.96 222 2.01 135 2.03 181 2.05
  17  0.502  0.505  0.759-  70 1.80 116 1.88 182 1.97 196 1.97 230 2.04 136 2.06
  18  0.996  0.258  0.002- 117 1.82 110 1.88 141 1.97 146 1.98 183 2.01 212 2.03
  19  0.999  0.249  0.491-  74 1.78 213 1.92 202 1.94 184 1.94 223 1.95 142 2.02
  20  0.998  0.757  0.007- 118 1.81  71 1.85 203 1.95 185 1.98 148 2.06 214 2.07
  21  0.997  0.756  0.507- 119 1.83  72 1.85 204 1.96 186 1.97 147 2.02 215 2.03
  22  0.495  0.258  0.002- 120 1.80 109 1.85 150 1.96 143 1.98 187 2.04 216 2.08
  23  0.510  0.247  0.498-  93 1.80 112 1.91 144 1.93 149 1.95 224 1.98 199 2.02
  24  0.507  0.756  1.000-  94 1.83 121 1.84 152 1.94 145 1.99 217 2.02 200 2.03
  25  0.507  0.754  0.509-  73 1.79  95 1.83 218 1.98 225 1.98 201 2.02 151 2.08
  26  0.999  0.259  0.255- 122 1.80  74 1.88 209 1.95 188 1.97 141 2.00 219 2.04
  27  0.009  0.243  0.749- 113 1.81  96 1.83 142 1.97 146 1.98 210 2.06 226 2.08
  28  0.006  0.747  0.243-  71 1.82  97 1.83 220 1.96 227 1.98 211 2.06 147 2.06
  29  0.993  0.750  0.743- 111 1.84  72 1.85 228 1.94 221 1.99 148 2.02 189 2.03
  30  0.507  0.241  0.252-  98 1.82 114 1.83 143 1.94 149 1.97 229 2.02 205 2.03
  31  0.509  0.244  0.751-  99 1.84 115 1.85 150 1.93 144 1.98 206 2.03 230 2.03
  32  0.506  0.751  0.252- 100 1.79 151 1.93 231 1.94 222 1.94 145 1.94 207 2.01
  33  0.503  0.742  0.744- 116 1.81  73 1.84 190 1.95 208 1.97 152 2.03 232 2.08
  34  0.256  0.997  0.005-  75 1.84 101 1.86 246 1.93 233 1.97 171 2.02 157 2.04
  35  0.252  0.993  0.506- 128 1.83  76 1.84 172 1.95 191 2.00 156 2.02 234 2.03
  36  0.243  0.508  0.998- 123 1.82  89 1.84 159 1.94 153 1.97 192 2.02 245 2.04
  37  0.256  0.494  0.507-  77 1.86 102 1.87 127 1.89 173 2.02 158 2.05 235 2.06
  38  0.757  1.000  0.994- 103 1.79  81 1.87 236 1.96 249 1.96 154 2.04 174 2.06
  39  0.750  0.009  0.494- 124 1.83  80 1.84 193 1.94 155 2.00 175 2.00 250 2.04
  40  0.741  0.501  0.004-  90 1.80  78 1.86 237 1.96 247 1.96 161 2.01 194 2.07
  41  0.751  0.499  0.500-  79 1.96 160 1.99 248 2.03 176 2.04 104 2.04 238 2.05   1 2.86
  42  0.244  0.002  0.243-  75 1.83  91 1.85 239 1.94 252 1.97 156 2.04 195 2.06
  43  0.259  0.999  0.744-  76 1.84 105 1.84 253 1.93 240 1.97 157 2.02 177 2.04
  44  0.255  0.491  0.252- 129 1.83 106 1.83 158 1.93 153 1.97 241 2.04 178 2.05
  45  0.247  0.507  0.741-  77 1.79 125 1.84 179 1.96 196 1.98 251 2.04 159 2.06
  46  0.743  0.001  0.256-  80 1.85  92 1.85 256 1.95 242 1.96 154 2.00 197 2.01
  47  0.747  0.007  0.756-  81 1.82 126 1.84 180 1.95 198 1.97 257 2.05 155 2.06
  48  0.755  0.498  0.241-  78 1.80 107 1.86 243 1.96 254 1.96 181 2.03 160 2.03
  49  0.757  0.500  0.744-  79 1.80 108 1.88 255 1.94 244 2.00 182 2.01 161 2.03   1 2.78
  50  0.257  0.252  0.006- 109 1.83  82 1.86 245 1.94 233 1.97 168 2.03 183 2.06
  51  0.255  0.257  0.505- 127 1.80  83 1.85 199 1.97 184 2.02 167 2.04 234 2.06
  52  0.252  0.742  0.994- 123 1.82  86 1.83 200 1.95 185 1.97 162 2.04 246 2.04
  53  0.253  0.756  0.493-  85 1.83 128 1.86 201 1.96 186 1.98 235 2.01 163 2.04
  54  0.757  0.252  0.008- 110 1.81  84 1.86 236 1.94 247 1.94 170 2.03 187 2.05
  55  0.743  0.244  0.497- 124 1.83  93 1.85 169 1.94 248 1.96 164 1.96 202 2.06
  56  0.741  0.749  0.995-  94 1.82  88 1.84 237 1.95 249 1.95 203 2.02 165 2.03
  57  0.741  0.754  0.494-  95 1.82  87 1.86 238 1.92 250 1.96 166 2.02 204 2.07
  58  0.250  0.257  0.243- 129 1.82  82 1.83 205 1.97 188 2.00 167 2.03 239 2.04
  59  0.245  0.253  0.744-  83 1.83  96 1.85 251 1.94 240 1.99 168 2.04 206 2.06
  60  0.243  0.747  0.256-  97 1.83  85 1.84 241 1.94 252 1.98 162 2.03 207 2.06
  61  0.247  0.742  0.757- 125 1.82  86 1.84 189 1.95 208 1.98 163 2.03 253 2.05
[...]
 243  0.754  0.625  0.245-  64 1.94  48 1.96
 244  0.731  0.626  0.751-  65 1.97  49 2.00
 245  0.243  0.376  0.995-  50 1.94  36 2.04
 246  0.238  0.873  0.000-  34 1.93  52 2.04
 247  0.741  0.375  0.987-  54 1.94  40 1.96
 248  0.768  0.368  0.491-  55 1.96  41 2.03
 249  0.736  0.875  0.006-  56 1.95  38 1.96
 250  0.769  0.878  0.502-  57 1.96  39 2.04
 251  0.265  0.377  0.757-  59 1.94  45 2.04
 252  0.246  0.875  0.253-  42 1.97  60 1.98
 253  0.261  0.874  0.749-  43 1.93  61 2.05
 254  0.740  0.374  0.264-  62 1.94  48 1.96
 255  0.766  0.375  0.755-  49 1.94  63 2.06
 256  0.744  0.876  0.245-  46 1.95  64 1.95
 257  0.764  0.876  0.746-  65 1.94  47 2.05

IMPORTANT INFORMATION: All symmetrisations will be switched off!
NOSYMM: (Re-)initialisation of all symmetry stuff for point group C_1.

 KPOINTS: Title

Automatic generation of k-mesh.
Space group operators:
 irot       det(A)        alpha          n_x          n_y          n_z        tau_x        tau_y        tau_z
    1     1.000000     0.000001     1.000000     0.000000     0.000000     0.000000     0.000000     0.000000

 Subroutine IBZKPT returns following result:

 Found      4 irreducible k-points:

 Following reciprocal coordinates:
            Coordinates               Weight
  0.250000  0.250000  0.250000      2.000000
 -0.250000  0.250000  0.250000      2.000000
  0.250000 -0.250000  0.250000      2.000000
 -0.250000 -0.250000  0.250000      2.000000

 Following cartesian coordinates:
            Coordinates               Weight
  0.016206  0.016206  0.016206      2.000000
 -0.016206  0.016206  0.016206      2.000000
  0.016206 -0.016206  0.016206      2.000000
 -0.016206 -0.016206  0.016206      2.000000

 SYSTEM =  LTO
 POSCAR =  config 59

 Startparameter for this run:
   NWRITE =      2    write-flag & timer
   PREC   = accura    normal or accurate (medium, high low for compatibility)
   ISTART =      1    job   : 0-new  1-cont  2-samecut
   ICHARG =      0    charge: 1-file 2-atom 10-const
   ISPIN  =      2    spin polarized calculation?
   LNONCOLLINEAR =      F non collinear calculations
   LSORBIT =      F    spin-orbit coupling
   INIWAV =      1    electr: 0-lowe 1-rand  2-diag
   LASPH  =      T    aspherical Exc in radial PAW
   METAGGA=      F    non-selfconsistent MetaGGA calc.

 Electronic Relaxation 1
   ENCUT  =  500.0 eV  36.75 Ry    6.06 a.u.  28.13 28.13 28.13*2*pi/ulx,y,z
   ENINI  =  500.0     initial cutoff
   ENAUG  =  628.9 eV  augmentation charge cutoff
   NELM   =     60;   NELMIN=  2; NELMDL=  0     # of ELM steps
   EDIFF  = 0.1E-05   stopping-criterion for ELM
   LREAL  =      T    real-space projection
   NLSPLINE    = F    spline interpolate recip. space projectors
   LCOMPAT=      F    compatible to vasp.4.4
   GGA_COMPAT  = T    GGA compatible to vasp.4.4-vasp.4.6
   LMAXPAW     = -100 max onsite density
   LMAXMIX     =    4 max onsite mixed and CHGCAR
   VOSKOWN=      0    Vosko Wilk Nusair interpolation
[...]
   -.383E+01 -.289E+02 -.129E+02   0.284E+01 0.289E+02 0.120E+02   0.100E+01 -.135E-03 0.900E+00   -.301E-03 -.378E-03 -.329E-04
   0.643E+00 -.591E+00 0.174E+02   0.291E+00 -.488E+00 -.173E+02   -.946E+00 0.109E+01 -.802E-01   -.396E-03 -.127E-03 -.370E-03
   -.179E+01 0.382E+01 -.854E+01   0.274E+01 -.462E+01 0.902E+01   -.958E+00 0.827E+00 -.484E+00   0.331E-05 -.538E-04 0.331E-03
   -.158E+02 0.131E+02 0.459E+00   0.161E+02 -.131E+02 -.439E+00   -.259E+00 -.157E-01 -.310E-01   -.462E-04 0.328E-03 -.310E-03
   0.148E+02 0.206E+02 -.687E+01   -.145E+02 -.216E+02 0.556E+01   -.324E+00 0.104E+01 0.131E+01   0.345E-03 0.241E-03 0.193E-03
   -.126E+02 -.169E+01 -.589E+01   0.135E+02 0.151E+01 0.681E+01   -.840E+00 0.198E+00 -.934E+00   0.233E-03 -.372E-04 0.253E-03
   0.158E+02 0.129E+02 -.210E+02   -.160E+02 -.137E+02 0.220E+02   0.153E+00 0.852E+00 -.943E+00   -.409E-04 0.278E-03 -.582E-03
   0.686E+01 -.110E+02 -.902E+00   -.765E+01 0.122E+02 0.656E+00   0.784E+00 -.118E+01 0.250E+00   0.942E-04 -.286E-03 0.324E-03
   -.227E+02 0.115E+02 -.748E+01   0.237E+02 -.126E+02 0.884E+01   -.106E+01 0.114E+01 -.137E+01   -.115E-03 -.162E-03 -.451E-03
   -.234E+02 0.386E+01 0.370E+02   0.241E+02 -.386E+01 -.381E+02   -.758E+00 0.600E-02 0.110E+01   -.123E-02 -.153E-03 0.135E-03
   0.249E+01 -.733E+01 0.280E+02   -.220E+01 0.847E+01 -.287E+02   -.291E+00 -.115E+01 0.668E+00   -.449E-04 -.139E-03 -.105E-03
   0.166E+02 0.109E+01 -.243E+02   -.174E+02 -.110E+01 0.253E+02   0.847E+00 0.152E-01 -.100E+01   -.867E-04 0.196E-03 -.307E-03
   0.179E+02 0.259E+02 0.647E+01   -.170E+02 -.258E+02 -.534E+01   -.916E+00 -.129E+00 -.114E+01   0.158E-02 0.401E-03 0.141E-02
   0.346E+02 0.621E+01 0.292E+02   -.356E+02 -.598E+01 -.302E+02   0.105E+01 -.235E+00 0.100E+01   0.249E-04 -.373E-04 -.563E-03
   -.540E+01 -.152E+02 -.206E+01   0.660E+01 0.150E+02 0.127E+01   -.122E+01 0.184E+00 0.795E+00   -.269E-03 0.427E-04 0.867E-03
   -.123E+02 0.146E+02 0.149E+01   0.132E+02 -.158E+02 -.121E+01   -.940E+00 0.119E+01 -.288E+00   -.184E-03 -.427E-03 0.172E-03
   -.812E+01 -.158E+02 0.495E+01   0.785E+01 0.170E+02 -.606E+01   0.265E+00 -.121E+01 0.113E+01   -.543E-03 -.109E-03 -.855E-04
   0.119E+02 0.426E+01 -.175E+02   -.126E+02 -.433E+01 0.181E+02   0.704E+00 0.512E-01 -.631E+00   -.409E-03 -.152E-03 -.424E-03
   -.960E+01 -.254E+02 -.412E+02   0.936E+01 0.266E+02 0.421E+02   0.238E+00 -.123E+01 -.922E+00   -.171E-03 -.877E-04 0.384E-03
   -.121E+02 -.670E+01 0.236E+02   0.130E+02 0.661E+01 -.243E+02   -.958E+00 0.101E+00 0.743E+00   -.915E-04 0.155E-03 0.756E-03
   0.332E+02 0.316E+02 -.258E+02   -.322E+02 -.317E+02 0.250E+02   -.991E+00 0.629E-01 0.750E+00   0.115E-02 0.210E-03 -.131E-02
   -.325E+01 0.548E+01 -.156E+02   0.420E+01 -.523E+01 0.165E+02   -.965E+00 -.266E+00 -.100E+01   -.229E-04 -.756E-03 -.126E-03
   0.120E+02 -.123E+02 -.249E+02   -.116E+02 0.133E+02 0.260E+02   -.390E+00 -.990E+00 -.112E+01   -.620E-04 -.938E-04 -.289E-03
   0.468E+01 0.579E+01 0.685E+01   -.441E+01 -.692E+01 -.787E+01   -.266E+00 0.115E+01 0.102E+01   0.160E-03 0.119E-02 0.415E-03
   0.535E+01 -.767E+01 0.306E+01   -.503E+01 0.847E+01 -.403E+01   -.317E+00 -.804E+00 0.983E+00   -.186E-03 -.986E-04 -.300E-03
   -.157E+02 -.392E+01 -.177E+02   0.163E+02 0.398E+01 0.189E+02   -.643E+00 -.626E-01 -.119E+01   -.421E-03 -.257E-03 -.142E-03
   0.251E+02 0.947E+01 -.132E+02   -.262E+02 -.982E+01 0.130E+02   0.117E+01 0.374E+00 0.265E+00   0.101E-03 0.107E-02 0.164E-03
   0.157E+02 0.903E-01 0.148E+02   -.166E+02 -.175E+00 -.157E+02   0.927E+00 0.800E-01 0.973E+00   -.347E-03 0.257E-03 -.270E-04
   0.447E+01 -.138E+02 0.260E+02   -.564E+01 0.135E+02 -.271E+02   0.119E+01 0.243E+00 0.108E+01   0.263E-03 -.994E-03 0.824E-04
   0.103E+02 -.163E+02 0.259E+02   -.103E+02 0.175E+02 -.269E+02   -.348E-01 -.121E+01 0.926E+00   0.295E-03 -.439E-03 0.285E-03
   0.384E+01 0.112E+02 0.939E+01   -.499E+01 -.108E+02 -.103E+02   0.117E+01 -.438E+00 0.888E+00   -.594E-04 -.428E-03 0.834E-04
   0.173E+02 0.288E+00 -.357E+01   -.184E+02 -.566E+00 0.457E+01   0.112E+01 0.290E+00 -.101E+01   -.215E-04 0.795E-03 -.209E-03
[...]
   0.946E+02 0.271E+01 -.184E+02   -.104E+03 -.387E+01 0.189E+02   0.961E+01 0.116E+01 -.516E+00   0.197E-03 0.132E-02 -.461E-03
   0.246E+02 -.830E+01 0.136E+02   -.277E+02 0.128E+02 -.163E+02   0.309E+01 -.452E+01 0.263E+01   0.184E-03 -.147E-03 0.265E-03
   0.493E+02 0.969E+01 0.109E+01   -.549E+02 -.144E+02 -.127E+01   0.570E+01 0.468E+01 0.187E+00   0.220E-03 0.586E-04 0.299E-03
   0.317E+02 -.576E+01 0.395E+02   -.352E+02 0.642E+01 -.467E+02   0.354E+01 -.661E+00 0.718E+01   -.203E-03 -.767E-04 -.156E-03
   -.509E+02 -.585E+02 0.161E+02   0.579E+02 0.622E+02 -.182E+02   -.707E+01 -.369E+01 0.214E+01   0.161E-03 0.123E-02 0.580E-03
   0.300E+02 -.927E+01 -.133E+02   -.349E+02 0.101E+02 0.178E+02   0.498E+01 -.859E+00 -.447E+01   -.465E-03 0.958E-04 -.697E-04
   -.775E+02 -.447E+01 0.266E+01   0.856E+02 0.795E+01 -.939E-01   -.806E+01 -.348E+01 -.256E+01   0.199E-04 -.645E-03 0.384E-04
   -.547E+02 -.539E+01 -.230E+02   0.614E+02 0.950E+01 0.278E+02   -.668E+01 -.411E+01 -.481E+01   -.120E-03 -.279E-03 0.316E-04
   0.242E+02 0.315E+01 -.366E+01   -.232E+02 -.369E+01 0.497E+01   -.999E+00 0.533E+00 -.131E+01   0.839E-04 -.108E-03 -.390E-03
   -.327E+02 0.172E+02 -.522E+01   0.353E+02 -.226E+02 0.510E+01   -.263E+01 0.535E+01 0.109E+00   -.873E-04 0.266E-03 0.460E-03
   0.278E+02 -.181E+02 -.454E+02   -.309E+02 0.197E+02 0.542E+02   0.306E+01 -.162E+01 -.885E+01   -.162E-03 0.242E-03 0.444E-03
   -.323E+02 0.278E+02 -.231E+02   0.370E+02 -.337E+02 0.260E+02   -.478E+01 0.584E+01 -.283E+01   0.344E-03 -.133E-02 -.450E-03
   0.680E+01 0.256E+01 0.212E+02   -.660E+01 -.263E+01 -.257E+02   -.192E+00 0.709E-01 0.452E+01   -.227E-03 -.149E-03 -.245E-03
   -.469E+02 -.225E+02 -.441E+01   0.504E+02 0.277E+02 0.721E+00   -.350E+01 -.517E+01 0.369E+01   0.136E-04 -.350E-03 0.281E-03
   -.310E+01 -.102E+02 -.386E+01   0.145E-11 -.137E-11 -.363E-12   0.306E+01 0.102E+02 0.386E+01   -.653E-03 0.161E-02 -.249E-03

 POSITION                                       TOTAL-FORCE (eV/Angst)
     13.48396      8.69425      9.60886         0.001675     -0.049148      0.002310
     15.35547     15.33238     15.34404         0.006500      0.011929      0.012450
     15.40978     15.27862      7.62254        -0.007000      0.015920      0.010226
      0.09032      7.64070     15.40071        -0.010821      0.014419      0.001194
     15.36061      7.79018      7.78513        -0.005726      0.002542     -0.017732
      7.62215     15.32506      0.00158         0.013144      0.015248      0.003158
      7.74327      0.14973      7.68963        -0.002370     -0.007184     -0.002695
      7.77419      7.64059     15.36837        -0.003024      0.009032      0.010653
      7.57893      7.70683      7.64286         0.029723      0.001358      0.003488
      0.09745      0.03391      3.94467        -0.017129      0.003271     -0.003796
      0.05367      0.10807     11.68613        -0.007234     -0.007822     -0.017060
     15.32371      7.59766      3.85532         0.006179      0.019221      0.000328
     15.35129      7.73125     11.46532         0.009330      0.005342      0.022489
      7.78769      0.13720      3.86448        -0.008817     -0.014339     -0.000524
      7.61868      0.10639     11.60890         0.011764     -0.005921     -0.006378
      7.58952      7.64873      3.97028         0.022271      0.012853     -0.010897
      7.74527      7.78454     11.70675        -0.007470     -0.003152     -0.015899
     15.36089      3.97906      0.03855        -0.000112     -0.009941     -0.008680
     15.41328      3.84559      7.57403        -0.001851      0.001359      0.012764
     15.39135     11.68235      0.11135        -0.002188     -0.028294     -0.013634
     15.38020     11.66652      7.81525         0.006750     -0.021953     -0.005865
      7.64180      3.98692      0.02933         0.007532     -0.017180     -0.000424
      7.86507      3.80329      7.68005        -0.011500      0.007647      0.000521
      7.81780     11.66832     15.41945        -0.005873     -0.006888      0.010453
      7.82311     11.62989      7.85174        -0.003157     -0.002330     -0.009309
     15.41255      3.99432      3.92904         0.000637     -0.013862     -0.002849
      0.13797      3.75244     11.55335        -0.014917      0.021992     -0.000375
      0.08713     11.52061      3.75345        -0.015995     -0.003947      0.000933
     15.31403     11.56490     11.46468         0.011320     -0.012800      0.009367
      7.82606      3.71657      3.88906        -0.011841      0.006104      0.004006
      7.84986      3.76756     11.59237        -0.007952      0.022358     -0.007530
      7.79896     11.58516      3.88963        -0.004017      0.000096     -0.011261
      7.76389     11.44571     11.47920        -0.006611      0.012303     -0.000887
      3.95298     15.38726      0.08454        -0.007764      0.017510     -0.008777
      3.88190     15.32395      7.80588        -0.005963      0.015858     -0.009730
      3.75439      7.83937     15.39191         0.002224     -0.012611      0.003309
      3.94330      7.62595      7.81859        -0.008804      0.010963     -0.011400
     11.67158     15.42410     15.32978        -0.017614      0.000377      0.015718
     11.56479      0.13195      7.62682         0.002767     -0.014697      0.010661
     11.42930      7.73144      0.06590         0.018418      0.008572     -0.001877
     11.57930      7.69237      7.71815        -0.017237     -0.009030     -0.005285
      3.76486      0.03233      3.74980         0.012357     -0.000948      0.013093
      3.99510     15.40961     11.47660        -0.011705      0.005597      0.005912
      3.92706      7.57827      3.88430        -0.004748      0.015767     -0.007932
      3.81575      7.81553     11.43401         0.003770     -0.006700      0.018047
     11.46640      0.01964      3.94286         0.004754     -0.019589     -0.007468
     11.52881      0.11360     11.66316        -0.002233     -0.018453     -0.012805
     11.64808      7.68687      3.71463        -0.000360      0.012998      0.005860
     11.67741      7.70735     11.47533        -0.007080      0.008054      0.020081
      3.96869      3.88344      0.09665        -0.010025     -0.019777     -0.014324
      3.92763      3.96234      7.79471        -0.008196     -0.021171     -0.016495
      3.88049     11.44746     15.33137        -0.000067      0.018628      0.005139
      3.89616     11.65609      7.60508         0.002307     -0.000839      0.007068
     11.67990      3.88570      0.11663        -0.011526     -0.006712     -0.014553
     11.46169      3.76198      7.66456         0.012094      0.017610      0.009431
     11.43081     11.55970     15.34220         0.022998     -0.004029      0.010194
     11.42370     11.63743      7.62065         0.019105     -0.017843      0.005186
      3.86227      3.97102      3.75628        -0.004744     -0.022749      0.009754
      3.77455      3.90382     11.47276         0.006458     -0.000230      0.013365
      3.74367     11.52342      3.95119         0.016472      0.012337     -0.008839
[...]
     11.63850      9.64297      3.77400        -0.001055     -0.001572     -0.002399
     11.27824      9.66373     11.58971        -0.003615     -0.002451      0.004338
      3.74599      5.79997     15.35290         0.010525      0.002091      0.005501
      3.67210     13.47443      0.00543         0.011169     -0.003495      0.007354
     11.42375      5.78744     15.22722         0.006195     -0.001761     -0.002830
     11.85425      5.68222      7.58095         0.001928     -0.009178     -0.004801
     11.36006     13.49981      0.09031         0.008537      0.002961      0.011988
     11.86492     13.53903      7.74334         0.010717      0.003759      0.005099
      4.08969      5.81078     11.67405        -0.010189     -0.001724     -0.002660
      3.80089     13.49973      3.90279         0.009818     -0.001947      0.001018
      4.02855     13.47635     11.54859        -0.020802     -0.001231     -0.008789
     11.42093      5.77076      4.07863         0.001928     -0.005118      0.001232
     11.81616      5.78529     11.65098        -0.000108     -0.002842      0.007631
     11.48258     13.50632      3.78399         0.017010      0.005902     -0.008592
     11.77848     13.51341     11.50975        -0.011302      0.002589     -0.000538
    total drift:                               -0.036251      0.025149     -0.004357

  FREE ENERGIE OF THE ION-ELECTRON SYSTEM (eV)
  free  energy   TOTEN  =     -1757.92264849 eV

  energy  without entropy=    -1757.92264849  energy(sigma->0) =    -1757.92264849

 stress matrix after NEB project (eV)
    -38.21892      0.38121      1.10959
      0.38116    -19.24557      1.17434
      1.10960      1.17433    -28.39783
  FORCES: max atom, RMS     0.049231    0.015764
  FORCE total and by dimension    0.252710    0.049148
  Stress total and by dimension   51.410369   38.218923
 Quasi-Newton relaxation of ions (Broydens 2nd method)
  g(Force)  = 0.308E-02   g(Stress)= 0.000E+00

 Reset! Starting new Quasi-Newton update for ions

 reached required accuracy - stopping structural energy minimisation
 writing wavefunctions

 total charge

[...]

 magnetization (x)

# of ion       s       p       d       tot
    1       -0.000  -0.000   0.000  -0.000
    2        0.000  -0.000  -0.000  -0.000
    3        0.000   0.000   0.000   0.000
    4       -0.000  -0.000   0.000  -0.000
    5        0.000   0.001   0.056   0.056
    6       -0.000  -0.000  -0.000  -0.000
    7        0.000   0.000   0.001   0.001
    8       -0.000  -0.000   0.000   0.000
    9        0.000  -0.000   0.006   0.006
   10       -0.000  -0.000  -0.000  -0.000
   11        0.000  -0.000   0.000   0.000
   12       -0.000  -0.000  -0.000  -0.000
   13       -0.000  -0.000  -0.000  -0.000
   14       -0.000  -0.000  -0.000  -0.000
   15       -0.000  -0.000  -0.000  -0.000
   16       -0.000  -0.000   0.000   0.000
   17       -0.000  -0.000   0.000   0.000
   18       -0.000  -0.000   0.000   0.000
   19        0.000   0.000   0.003   0.003
   20       -0.000  -0.000   0.000   0.000
   21        0.000   0.000   0.001   0.001
   22       -0.000  -0.000   0.000   0.000
   23        0.000   0.000   0.004   0.004
   24       -0.000  -0.000  -0.000  -0.000
   25        0.000   0.000   0.002   0.002
   26       -0.000  -0.000  -0.000  -0.000
   27       -0.000  -0.000   0.000   0.000
   28       -0.000  -0.000   0.000   0.000
   29       -0.000  -0.000  -0.000  -0.000
   30       -0.000  -0.000   0.000   0.000
   31       -0.000  -0.000   0.000  -0.000
   32       -0.000  -0.000  -0.000  -0.000
   33       -0.000  -0.000  -0.000  -0.000
   34        0.000  -0.000   0.000   0.000
   35        0.000   0.000   0.000   0.000
   36       -0.000  -0.000  -0.000  -0.000
   37       -0.000  -0.000   0.001   0.001
   38       -0.000  -0.000  -0.000  -0.000
   39        0.000   0.000   0.001   0.001
   40       -0.000  -0.000  -0.000  -0.000
   41        0.005   0.007   0.891   0.903
   42        0.000  -0.000   0.000   0.000
   43       -0.000  -0.000  -0.000  -0.000
   44       -0.000  -0.000  -0.000  -0.000
   45       -0.000  -0.000  -0.000  -0.000
   46       -0.000  -0.000  -0.000  -0.000
   47        0.000  -0.000   0.000   0.000
   48       -0.000  -0.000  -0.000  -0.000
   49       -0.000  -0.000  -0.002  -0.003
   50       -0.000  -0.000   0.000   0.000
   51        0.000   0.000   0.000   0.000
   52       -0.000  -0.000   0.000   0.000
   53        0.000   0.000   0.000   0.000
   54       -0.000  -0.000   0.000  -0.000
   55        0.000   0.000   0.008   0.008
   56       -0.000  -0.000  -0.000  -0.000
   57       -0.000  -0.000   0.008   0.008
   58       -0.000  -0.000   0.000   0.000
   59       -0.000  -0.000  -0.000  -0.000
   60       -0.000  -0.000  -0.000  -0.000
[...]
  243       -0.000  -0.000   0.000  -0.000
  244       -0.000  -0.000   0.000  -0.000
  245       -0.000   0.000   0.000   0.000
  246        0.000   0.000   0.000   0.000
  247        0.000  -0.000   0.000   0.000
  248       -0.000   0.001   0.000   0.000
  249        0.000  -0.000   0.000  -0.000
  250       -0.000  -0.000   0.000  -0.000
  251       -0.000  -0.000   0.000  -0.000
  252        0.000   0.000   0.000   0.000
  253       -0.000  -0.000   0.000  -0.000
  254       -0.000  -0.000   0.000  -0.000
  255        0.000  -0.000   0.000  -0.000
  256       -0.000  -0.000   0.000  -0.000
  257       -0.000  -0.000   0.000  -0.000
tot          0.002  -0.044   0.979   0.937