 vasp.5.4.4.18Apr17-6-g9f103f2a35 (build Apr 30 2017 20:10:35) complex

 executed on             LinuxIFC date 2017.08.02  19:02:52

 INCAR:
 POTCAR:   PAW_PBE Ti_pv 07Sep2000
 POTCAR:   PAW_PBE O 08Apr2002
 POTCAR:    PAW_PBE F 08Apr2002
 POTCAR:   PAW_PBE Ti_pv 07Sep2000
   VRHFIN =Ti: d3 s1

   TITEL  = PAW_PBE Ti_pv 07Sep2000
   POMASS =   47.880; ZVAL   =   10.000    mass and valenz
   ENMAX  =  222.338; ENMIN  =  166.753 eV
   QCUT   =   -4.042; QGAM   =    8.085    optimization parameters

   Description
     l     E      TYP  RCUT    TYP  RCUT
     1   .000     23  2.300
     1  -.100     23  2.300
     2   .000     23  2.500
     2   .000     23  2.500
     0   .000     23  2.500
     0  1.500     23  2.500
     3   .000      7   .000

 POTCAR:   PAW_PBE O 08Apr2002
   VRHFIN =O: s2p4

   TITEL  = PAW_PBE O 08Apr2002
   POMASS =   16.000; ZVAL   =    6.000    mass and valenz
   ENMAX  =  400.000; ENMIN  =  300.000 eV
   QCUT   =   -5.520; QGAM   =   11.041    optimization parameters

   Description
     l     E      TYP  RCUT    TYP  RCUT
     0   .000     23  1.200
     0  -.700     23  1.200
     1   .000     23  1.520
     1   .600     23  1.520
     2   .000      7  1.500

 POTCAR:    PAW_PBE F 08Apr2002
   VRHFIN =F: s2p5

   TITEL  = PAW_PBE F 08Apr2002
   POMASS =   18.998; ZVAL   =    7.000    mass and valenz
   ENMAX  =  400.000; ENMIN  =  300.000 eV

 Optimization of the real space projectors (new method)

 maximal supplied QI-value         = 15.12
 optimisation between [QCUT,QGAM] = [ 13.45, 27.06] = [ 50.69,205.06] Ry
 Optimized for a Real-space Cutoff    1.49 Angstroem

   l    n(q)    QCUT    max X(q) W(low)/X(q) W(high)/X(q)  e(spline)
   1     12    13.455     4.841    0.13E-05    0.83E-06    0.56E-07
   1     12    13.455     5.701    0.32E-04    0.25E-04    0.17E-06
   2     11    13.455     4.569    0.64E-05    0.34E-05    0.50E-07
   2     11    13.455    32.276    0.49E-04    0.38E-04    0.46E-06
   0     12    13.455    30.046    0.17E-04    0.41E-05    0.51E-07
   0     12    13.455    45.433    0.12E-04    0.27E-04    0.38E-06
 Optimization of the real space projectors (new method)

[...]

   l    n(q)    QCUT    max X(q) W(low)/X(q) W(high)/X(q)  e(spline)
   0      9    13.368     4.192    0.20E-04    0.58E-05    0.56E-07
   0      9    13.368     8.473    0.60E-04    0.52E-04    0.21E-06
   1      9    13.368     2.474    0.22E-04    0.17E-04    0.28E-07
   1      9    13.368     3.912    0.94E-04    0.97E-04    0.20E-06
 Optimization of the real space projectors (new method)

 maximal supplied QI-value         = 24.76
 optimisation between [QCUT,QGAM] = [ 13.37, 26.98] = [ 50.04,203.89] Ry
 Optimized for a Real-space Cutoff    1.17 Angstroem

   l    n(q)    QCUT    max X(q) W(low)/X(q) W(high)/X(q)  e(spline)
   0      9    13.368    14.049    0.39E-04    0.34E-04    0.16E-06
   0      9    13.368     8.945    0.54E-04    0.47E-04    0.20E-06
   1      9    13.368     7.086    0.99E-04    0.10E-03    0.23E-06
   1      9    13.368     6.747    0.86E-04    0.89E-04    0.21E-06

 PAW_PBE Ti_pv 07Sep2000                :
 PAW_PBE O 08Apr2002                    :
  PAW_PBE F 08Apr2002                   :

 POSCAR: TiOF2 2x2x2 config 0047
  positions in direct lattice
  velocities in cartesian coordinates
 exchange correlation table for  LEXCH =       14
   RHO(1)=    0.500       N(1)  =     2000
   RHO(2)=  100.500       N(2)  =     4000

 VTST: version 3.1, (03/28/14)

 CHAIN: initializing optimizer

 OPT: Using VASP QUASI-newton optimizer
 CHAIN: Read ICHAIN            0

 POSCAR: TiOF2 2x2x2 config 0047
  positions in direct lattice
  velocities in cartesian coordinates

 ion  position               nearest neighbor table
   1  0.000  0.000  1.000-  17 1.88  21 1.88  25 1.92  27 1.92  29 1.92  30 1.92
   2  0.000  0.000  0.500-  18 1.88  22 1.88  26 1.92  28 1.92  29 1.92  30 1.92
   3  0.000  0.500  0.000-  19 1.88  23 1.88  25 1.92  27 1.92  31 1.92  32 1.92
   4  0.000  0.500  0.500-  20 1.88  24 1.88  26 1.92  28 1.92  31 1.92  32 1.92
   5  0.500  1.000  1.000-  11 1.92  14 1.92  13 1.92   9 1.92  17 2.10  21 2.10
   6  0.500  0.000  0.500-  10 1.92  14 1.92  12 1.92  13 1.92  22 2.10  18 2.10
   7  0.500  0.500  0.000-  11 1.92  15 1.92   9 1.92  16 1.92  23 2.10  19 2.10
   8  0.500  0.500  0.500-  15 1.92  10 1.92  12 1.92  16 1.92  20 2.10  24 2.10
   9  0.500  0.250  1.000-   5 1.92   7 1.92
  10  0.500  0.250  0.500-   6 1.92   8 1.92
  11  0.500  0.750  1.000-   5 1.92   7 1.92
  12  0.500  0.750  0.500-   6 1.92   8 1.92
  13  0.500  0.000  0.250-   5 1.92   6 1.92
  14  0.500  0.000  0.750-   5 1.92   6 1.92
  15  0.500  0.500  0.250-   7 1.92   8 1.92
  16  0.500  0.500  0.750-   7 1.92   8 1.92
  17  0.236  1.000  0.000-   1 1.88   5 2.10
  18  0.236  1.000  0.500-   2 1.88   6 2.10
  19  0.236  0.500  0.000-   3 1.88   7 2.10
  20  0.236  0.500  0.500-   4 1.88   8 2.10
  21  0.764  1.000  0.000-   1 1.88   5 2.10
  22  0.764  1.000  0.500-   2 1.88   6 2.10
  23  0.764  0.500  0.000-   3 1.88   7 2.10
  24  0.764  0.500  0.500-   4 1.88   8 2.10
  25  0.000  0.250  1.000-   1 1.92   3 1.92
  26  0.000  0.250  0.500-   4 1.92   2 1.92
  27  1.000  0.750  1.000-   1 1.92   3 1.92
  28  1.000  0.750  0.500-   4 1.92   2 1.92
  29  1.000  0.000  0.250-   1 1.92   2 1.92
  30  0.000  0.000  0.750-   1 1.92   2 1.92
  31  0.000  0.500  0.250-   4 1.92   3 1.92
  32  1.000  0.500  0.750-   4 1.92   3 1.92

IMPORTANT INFORMATION: All symmetrisations will be switched off!
NOSYMM: (Re-)initialisation of all symmetry stuff for point group C_1.

 KPOINTS: Title

Automatic generation of k-mesh.
Space group operators:
 irot       det(A)        alpha          n_x          n_y          n_z        tau_x        tau_y        tau_z
    1     1.000000     0.000000     1.000000     0.000000     0.000000     0.000000     0.000000     0.000000

 Subroutine IBZKPT returns following result:

 Found      4 irreducible k-points:

 Following reciprocal coordinates:
            Coordinates               Weight
  0.250000  0.250000  0.250000      2.000000
 -0.250000  0.250000  0.250000      2.000000
  0.250000 -0.250000  0.250000      2.000000
 -0.250000 -0.250000  0.250000      2.000000

 Following cartesian coordinates:
            Coordinates               Weight
  0.031389  0.032512  0.032512      2.000000
 -0.031389  0.032512  0.032512      2.000000
  0.031389 -0.032512  0.032512      2.000000
 -0.031389 -0.032512  0.032512      2.000000

 SYSTEM =  LTO
 POSCAR =  TiOF2 2x2x2 config 0047

 Startparameter for this run:
   NWRITE =      2    write-flag & timer
   PREC   = accura    normal or accurate (medium, high low for compatibility)
   ISTART =      1    job   : 0-new  1-cont  2-samecut
   ICHARG =      0    charge: 1-file 2-atom 10-const
   ISPIN  =      2    spin polarized calculation?
   LNONCOLLINEAR =      F non collinear calculations
   LSORBIT =      F    spin-orbit coupling
   INIWAV =      1    electr: 0-lowe 1-rand  2-diag
   LASPH  =      T    aspherical Exc in radial PAW
   METAGGA=      F    non-selfconsistent MetaGGA calc.

 Electronic Relaxation 1
   ENCUT  =  700.0 eV  51.45 Ry    7.17 a.u.  17.18 16.59 16.59*2*pi/ulx,y,z
   ENINI  =  700.0     initial cutoff
   ENAUG  =  613.6 eV  augmentation charge cutoff
   NELM   =     60;   NELMIN=  2; NELMDL=  0     # of ELM steps
   EDIFF  = 0.1E-05   stopping-criterion for ELM
   LREAL  =      T    real-space projection
   NLSPLINE    = F    spline interpolate recip. space projectors
   LCOMPAT=      F    compatible to vasp.4.4
   GGA_COMPAT  = T    GGA compatible to vasp.4.4-vasp.4.6
   LMAXPAW     = -100 max onsite density
   LMAXMIX     =    4 max onsite mixed and CHGCAR
   VOSKOWN=      0    Vosko Wilk Nusair interpolation
   ROPT   =   -0.00010  -0.00010  -0.00010
 Ionic relaxation
   EDIFFG = -.1E-01   stopping-criterion for IOM
   NSW    =    100    number of steps for IOM
   NBLOCK =      1;   KBLOCK =    100    inner block; outer block
   IBRION =      1    ionic relax: 0-MD 1-quasi-New 2-CG
   NFREE  =      0    steps in history (QN), initial steepest desc. (CG)
   ISIF   =      3    stress and relaxation
   IWAVPR =     11    prediction:  0-non 1-charg 2-wave 3-comb
   ISYM   =      0    0-nonsym 1-usesym 2-fastsym
   LCORR  =      T    Harris-Foulkes like correction to forces

   POTIM  = 0.5000    time-step for ionic-motion
   TEIN   =    0.0    initial temperature
   TEBEG  =    0.0;   TEEND  =   0.0 temperature during run
   SMASS  =  -3.00    Nose mass-parameter (am)
   estimated Nose-frequenzy (Omega)   =  0.10E-29 period in steps =****** mass=  -0.145E-26a.u.
   SCALEE = 1.0000    scale energy and forces
   NPACO  =    256;   APACO  = 16.0  distance and # of slots for P.C.
   PSTRESS=    0.0 pullay stress

  Mass of Ions in am
   POMASS =  47.88 16.00 19.00
  Ionic Valenz
   ZVAL   =  10.00  6.00  7.00
  Atomic Wigner-Seitz radii
  virtual crystal weights
   VCA    =   1.00  1.00  1.00
   NELECT =     240.0000    total number of electrons
   NUPDOWN=      -1.0000    fix difference up-down

 DOS related values:
   EMIN   =  10.00;   EMAX   =-10.00  energy-range for DOS
   EFERMI =   0.00
   ISMEAR =     0;   SIGMA  =   0.01  broadening in eV -4-tet -1-fermi 0-gaus

 Electronic relaxation 2 (details)
   IALGO  =     38    algorithm
   LDIAG  =      T    sub-space diagonalisation (order eigenvalues)
   LSUBROT=      F    optimize rotation matrix (better conditioning)
   TURBO    =      0    0=normal 1=particle mesh
   IRESTART =      0    0=no restart 2=restart with 2 vectors
   NREBOOT  =      0    no. of reboots
   NMIN     =      0    reboot dimension
   EREF     =   0.00    reference energy to select bands
   IMIX   =      4    mixing-type and parameters
     AMIX     =   0.40;   BMIX     =  1.00
     AMIX_MAG =   1.60;   BMIX_MAG =  1.00
     AMIN     =   0.10
     WC   =   100.;   INIMIX=   1;  MIXPRE=   1;  MAXMIX= -45

 Intra band minimization:
   WEIMIN = 0.0010     energy-eigenvalue tresh-hold
   EBREAK =  0.16E-08  absolut break condition
   DEPER  =   0.30     relativ break condition

   TIME   =   0.40     timestep for ELM

  volume/ion in A,a.u.               =      14.72        99.31
  Fermi-wavevector in a.u.,A,eV,Ry     =   1.307668  2.471135 23.265915  1.709996
  Thomas-Fermi vector in A             =   2.438387

 Write flags
   LWAVE        =      T    write WAVECAR
   LDOWNSAMPLE  =      F    k-point downsampling of WAVECAR
   LCHARG       =      T    write CHGCAR
   LVTOT        =      F    write LOCPOT, total local potential
   LVHAR        =      F    write LOCPOT, Hartree potential only
   LELF         =      F    write electronic localiz. function (ELF)
   LORBIT       =     11    0 simple, 1 ext, 2 COOP (PROOUT), +10 PAW based schemes

 Dipole corrections
   LMONO  =      F    monopole corrections only (constant potential shift)
   LDIPOL =      F    correct potential (dipole corrections)
   IDIPOL =      0    1-x, 2-y, 3-z, 4-all directions
   EPSILON=  1.0000000 bulk dielectric constant

 LDA+U is selected, type is set to LDAUTYPE =  2
   angular momentum for each species LDAUL =     2   -1   -1
[...]
     46     -15.1136      1.00000
     47     -15.1136      1.00000
     48     -15.0637      1.00000
     49      -7.9780      1.00000
     50      -7.8511      1.00000
     51      -7.8510      1.00000
     52      -7.6855      1.00000
     53      -6.9022      1.00000
     54      -6.7798      1.00000
     55      -6.7262      1.00000
     56      -6.7153      1.00000
     57      -6.7153      1.00000
     58      -6.7064      1.00000
     59      -6.7045      1.00000
     60      -6.6187      1.00000
[...]
    146       4.6304      0.00000
    147       4.6304      0.00000
    148       4.6730      0.00000
    149       4.7346      0.00000
    150       4.7346      0.00000
    151       4.7597      0.00000
    152       5.2171      0.00000
    153       5.2626      0.00000
    154       5.2967      0.00000
    155       5.2968      0.00000
    156       5.5033      0.00000
    157       5.6815      0.00000
    158       6.1656      0.00000
    159       6.8534      0.00000
    160       6.8534      0.00000

[...]

 spin component 2

[...]

 k-point     4 :      -0.2500   -0.2500    0.2500
  band No.  band energies     occupation
      1     -35.7518      1.00000
      2     -35.7498      1.00000
      3     -35.7497      1.00000
      4     -35.7477      1.00000
      5     -35.4415      1.00000
      6     -35.4415      1.00000
      7     -35.4394      1.00000
      8     -35.4391      1.00000
      9     -35.3350      1.00000
     10     -35.3347      1.00000
     11     -35.3328      1.00000
     12     -35.3328      1.00000
     13     -33.7036      1.00000
     14     -33.7017      1.00000
     15     -33.7017      1.00000
     16     -33.6999      1.00000
     17     -33.3592      1.00000
     18     -33.3592      1.00000
     19     -33.3572      1.00000
     20     -33.3571      1.00000
     21     -33.3124      1.00000
     22     -33.3122      1.00000
     23     -33.3104      1.00000
     24     -33.3104      1.00000
     25     -24.5417      1.00000
     26     -24.3815      1.00000
     27     -24.3815      1.00000
     28     -24.2030      1.00000
     29     -23.9722      1.00000
     30     -23.9328      1.00000
     31     -23.9327      1.00000
     32     -23.9065      1.00000
     33     -23.3112      1.00000
     34     -23.3081      1.00000
     35     -23.3081      1.00000
     36     -23.3071      1.00000
     37     -22.9365      1.00000
     38     -22.9290      1.00000
     39     -22.9290      1.00000
     40     -22.9217      1.00000
     41     -15.9693      1.00000
     42     -15.6842      1.00000
     43     -15.6842      1.00000
     44     -15.3600      1.00000
     45     -15.1818      1.00000
     46     -15.1137      1.00000
     47     -15.1136      1.00000
     48     -15.0637      1.00000
     49      -7.9780      1.00000
     50      -7.8511      1.00000
     51      -7.8510      1.00000
     52      -7.6855      1.00000
     53      -6.9022      1.00000
     54      -6.7798      1.00000
     55      -6.7262      1.00000
     56      -6.7153      1.00000
     57      -6.7153      1.00000
     58      -6.7064      1.00000
     59      -6.7045      1.00000
     60      -6.6187      1.00000
[...]
    146       4.6304      0.00000
    147       4.6304      0.00000
    148       4.6730      0.00000
    149       4.7345      0.00000
    150       4.7346      0.00000
    151       4.7597      0.00000
    152       5.2171      0.00000
    153       5.2626      0.00000
    154       5.2967      0.00000
    155       5.2968      0.00000
    156       5.5033      0.00000
    157       5.6814      0.00000
    158       6.1656      0.00000
    159       6.8534      0.00000
    160       6.8534      0.00000

 soft charge-density along one line, spin component           1
         0         1         2         3         4         5         6         7         8         9
 total charge-density along one line

 soft charge-density along one line, spin component           2
         0         1         2         3         4         5         6         7         8         9
 total charge-density along one line

------------------------ aborting loop because EDIFF is reached ----------------------------------------

 total charge

# of ion       s       p       d       tot
    1        0.288   6.437   1.797   8.522
    2        0.288   6.437   1.797   8.522
    3        0.288   6.437   1.797   8.522
    4        0.288   6.437   1.797   8.522
    5        0.301   6.453   1.732   8.486
    6        0.301   6.453   1.732   8.486
    7        0.301   6.453   1.732   8.486
    8        0.301   6.453   1.732   8.486
    9        1.571   3.384   0.000   4.955
   10        1.571   3.384   0.000   4.955
   11        1.571   3.384   0.000   4.955
   12        1.571   3.384   0.000   4.955
   13        1.571   3.384   0.000   4.955
   14        1.571   3.384   0.000   4.955
   15        1.571   3.384   0.000   4.955
   16        1.571   3.384   0.000   4.955
   17        1.731   4.374   0.000   6.106
   18        1.731   4.374   0.000   6.106
   19        1.731   4.374   0.000   6.106
   20        1.731   4.374   0.000   6.106
   21        1.731   4.374   0.000   6.106
   22        1.731   4.374   0.000   6.106
   23        1.731   4.374   0.000   6.106
   24        1.731   4.374   0.000   6.106
   25        1.731   4.395   0.000   6.127
   26        1.731   4.395   0.000   6.127
   27        1.731   4.395   0.000   6.127
   28        1.731   4.395   0.000   6.127
   29        1.731   4.395   0.000   6.127
   30        1.731   4.395   0.000   6.127
   31        1.731   4.395   0.000   6.127
   32        1.731   4.395   0.000   6.127
tot         42.627 148.790  14.114 205.531

 magnetization (x)

[...]

  FORCE on cell =-STRESS in cart. coord.  units (eV):
  Direction    XX          YY          ZZ          XY          YZ          ZX
  Alpha Z   743.58598   743.58598   743.58598
  Ewald   -4462.02482 -4066.27280 -4066.35095    -0.00018    -0.00398    -0.00245
  Hartree  2600.58462  2898.76966  2898.72604    -0.00009    -0.00211    -0.00133
  E(xc)   -1230.66028 -1231.14131 -1231.14129     0.00000    -0.00000     0.00000
  Local   -1757.98810 -2508.54441 -2508.42491     0.00027     0.00601     0.00377
  n-local  -975.98524  -964.18244  -964.18362    -0.00001    -0.00003    -0.00001
  augment   735.62301   764.09399   764.09398     0.00001     0.00002    -0.00000
  Kinetic  4347.04415  4363.70013  4363.69983     0.00002     0.00014     0.00011
  Fock        0.00000     0.00000     0.00000     0.00000     0.00000     0.00000
  Total       0.17932     0.00880     0.00507     0.00001     0.00005     0.00007
  in kB       0.61009     0.02993     0.01725     0.00003     0.00019     0.00025

 VOLUME and BASIS-vectors are now :
  energy-cutoff  :      700.00
  volume of cell :      470.92
      direct lattice vectors                 reciprocal lattice vectors
     7.964461998 -0.000000106 -0.000002060     0.125557759  0.000000002  0.000000032
    -0.000000106  7.689400549 -0.000003235     0.000000002  0.130049149  0.000000055
    -0.000001980 -0.000003235  7.689427058     0.000000034  0.000000055  0.130048701

  length of vectors
     7.964461998  7.689400549  7.689427058     0.125557759  0.130049149  0.130048701

 FORCES acting on ions
    electron-ion (+dipol)            ewald-force                    non-local-force                 convergence-correction
   -.641E-06 -.294E-03 -.112E-03   0.941E-06 0.519E-03 -.830E-04   0.404E-08 0.971E-05 -.285E-05   -.418E-06 -.265E-03 0.199E-03
   0.569E-05 -.605E-05 0.149E-03   -.558E-05 0.196E-03 0.438E-04   -.827E-07 0.831E-05 0.380E-05   -.392E-06 -.242E-03 -.198E-03
   0.804E-05 0.288E-03 0.745E-03   -.835E-05 -.512E-03 -.552E-03   -.157E-06 -.644E-05 -.786E-06   0.181E-06 0.261E-03 -.201E-03
   0.490E-05 -.340E-04 -.740E-03   -.521E-05 -.163E-03 0.547E-03   0.598E-07 -.156E-04 0.532E-06   -.417E-06 0.257E-03 0.201E-03
   -.521E-05 -.337E-02 -.593E-02   0.467E-05 0.465E-02 0.264E-02   0.888E-07 -.129E-03 0.458E-04   0.480E-06 -.778E-03 0.323E-02
   0.134E-05 0.189E-02 0.607E-02   -.169E-05 -.146E-02 -.282E-02   -.101E-06 -.149E-04 -.546E-04   0.531E-06 -.380E-03 -.318E-02
   -.220E-06 0.349E-02 0.631E-02   0.684E-06 -.476E-02 -.336E-02   0.430E-05 0.139E-03 -.554E-04   -.185E-06 0.762E-03 -.299E-02
   -.312E-05 -.183E-02 -.630E-02   0.317E-05 0.142E-02 0.337E-02   -.134E-06 0.928E-05 0.657E-04   0.310E-06 0.377E-03 0.296E-02
   -.121E-04 -.909E-03 0.658E-03   0.120E-04 0.647E-03 -.779E-03   -.659E-07 -.571E-04 0.806E-04   0.256E-06 0.383E-03 0.537E-04
   0.297E-04 -.553E-03 -.616E-03   -.297E-04 0.315E-03 0.729E-03   -.588E-06 0.507E-05 -.766E-04   0.170E-06 0.286E-03 -.519E-04
   0.994E-05 0.615E-03 0.646E-03   -.973E-05 -.327E-03 -.746E-03   -.133E-06 0.165E-04 0.661E-04   -.135E-06 -.369E-03 0.439E-04
   -.322E-04 0.760E-03 -.605E-03   0.321E-04 -.554E-03 0.698E-03   0.356E-06 0.341E-04 -.640E-04   0.176E-06 -.293E-03 -.410E-04
   0.375E-04 -.151E-02 -.935E-03   -.373E-04 0.197E-02 0.649E-03   -.123E-05 -.202E-03 -.128E-04   0.533E-06 -.293E-03 0.390E-03
   -.386E-04 -.145E-02 0.672E-03   0.383E-04 0.192E-02 -.348E-03   0.106E-05 -.219E-03 -.191E-04   -.295E-06 -.287E-03 -.394E-03
   -.320E-04 0.153E-02 -.835E-03   0.314E-04 -.199E-02 0.591E-03   0.459E-06 0.211E-03 0.160E-04   0.376E-06 0.287E-03 0.311E-03
   0.299E-04 0.139E-02 0.731E-03   -.286E-04 -.188E-02 -.480E-03   -.880E-06 0.197E-03 -.185E-04   -.525E-06 0.318E-03 -.314E-03
   -.129E+03 -.937E-03 -.133E-02   0.140E+03 0.141E-02 0.817E-03   -.114E+02 -.171E-03 -.180E-03   0.326E-02 -.301E-03 0.658E-03
   -.129E+03 0.526E-03 0.128E-02   0.140E+03 -.507E-03 -.761E-03   -.114E+02 0.106E-03 0.155E-03   -.919E-03 -.133E-03 -.642E-03
   -.129E+03 0.977E-03 0.154E-02   0.140E+03 -.146E-02 -.108E-02   -.114E+02 0.180E-03 0.207E-03   -.147E-02 0.299E-03 -.623E-03
   -.129E+03 -.519E-03 -.157E-02   0.140E+03 0.497E-03 0.114E-02   -.114E+02 -.102E-03 -.199E-03   -.114E-02 0.136E-03 0.599E-03
   0.129E+03 -.971E-03 -.126E-02   -.140E+03 0.145E-02 0.736E-03   0.114E+02 -.172E-03 -.179E-03   -.326E-02 -.300E-03 0.661E-03
   0.129E+03 0.447E-03 0.137E-02   -.140E+03 -.403E-03 -.887E-03   0.114E+02 0.791E-04 0.189E-03   0.918E-03 -.134E-03 -.645E-03
   0.129E+03 0.982E-03 0.153E-02   -.140E+03 -.146E-02 -.110E-02   0.114E+02 0.171E-03 0.228E-03   0.147E-02 0.300E-03 -.619E-03
   0.129E+03 -.538E-03 -.145E-02   -.140E+03 0.516E-03 0.102E-02   0.114E+02 -.102E-03 -.209E-03   0.114E-02 0.135E-03 0.604E-03
   -.957E-05 -.779E-02 0.122E-03   0.147E-04 0.268E-02 -.134E-03   -.600E-05 -.298E-03 0.776E-05   -.471E-06 0.552E-02 0.446E-05
   -.438E-04 0.272E-02 -.150E-03   0.416E-04 -.362E-02 0.160E-03   0.211E-05 0.251E-03 -.123E-04   0.113E-06 0.642E-03 -.203E-07
   0.131E-04 0.780E-02 0.185E-03   -.183E-04 -.270E-02 -.187E-03   0.627E-05 0.304E-03 0.716E-05   0.357E-06 -.552E-02 -.338E-05
   0.504E-04 -.272E-02 -.155E-03   -.491E-04 0.362E-02 0.159E-03   -.983E-06 -.266E-03 -.484E-05   -.322E-06 -.635E-03 -.215E-07
   -.276E-04 -.142E-04 -.640E-02   0.265E-04 0.123E-03 0.167E-02   0.806E-05 0.658E-04 -.126E-03   -.205E-05 -.164E-03 0.502E-02
   0.319E-04 -.262E-04 0.638E-02   -.314E-04 0.146E-03 -.164E-02   -.745E-05 0.572E-04 0.129E-03   0.197E-05 -.167E-03 -.503E-02
   -.206E-04 0.385E-04 0.373E-02   0.341E-04 -.151E-03 -.418E-02   -.171E-04 -.613E-04 0.396E-03   0.294E-05 0.163E-03 0.118E-03
   0.293E-04 0.401E-05 -.374E-02   -.437E-04 -.124E-03 0.419E-02   0.183E-04 -.599E-04 -.394E-03   -.313E-05 0.169E-03 -.119E-03
   0.215E-05 0.416E-07 -.513E-05   -.576E-13 0.638E-13 -.222E-13   0.312E-05 -.319E-04 -.118E-04   -.481E-06 0.387E-04 0.992E-05

 POSITION                                       TOTAL-FORCE (eV/Angst)
     -0.00000     -0.00000      7.68943        -0.000000     -0.000031      0.000001
     -0.00000     -0.00000      3.84471        -0.000001     -0.000044     -0.000001
     -0.00000      3.84470     -0.00000        -0.000000      0.000031     -0.000008
     -0.00000      3.84470      3.84471        -0.000001      0.000044      0.000009
      3.98223      7.68938      7.68942        -0.000000      0.000374     -0.000021
      3.98223      0.00000      3.84472        -0.000000      0.000035      0.000008
      3.98223      3.84471      0.00001         0.000004     -0.000366     -0.000086
      3.98223      3.84469      3.84470         0.000000     -0.000032      0.000097
      3.98223      1.92235      7.68942        -0.000000      0.000063      0.000014
      3.98223      1.92235      3.84471        -0.000001      0.000053     -0.000015
      3.98223      5.76705      7.68942        -0.000000     -0.000065      0.000010
      3.98223      5.76705      3.84471         0.000000     -0.000053     -0.000012
      3.98223      0.00000      1.92235        -0.000001     -0.000033      0.000091
      3.98223      0.00000      5.76707         0.000000     -0.000041     -0.000089
      3.98223      3.84469      1.92235         0.000000      0.000040      0.000083
      3.98223      3.84469      5.76707        -0.000000      0.000029     -0.000082
      1.88132      7.68940     -0.00000         0.008074      0.000004     -0.000033
      1.88133      7.68940      3.84471         0.007866     -0.000008      0.000028
      1.88133      3.84470     -0.00000         0.007875     -0.000002      0.000039
      1.88133      3.84470      3.84471         0.007768      0.000013     -0.000035
      6.08314      7.68940     -0.00000        -0.008074      0.000004     -0.000040
      6.08313      7.68940      3.84471        -0.007866     -0.000010      0.000032
      6.08313      3.84470     -0.00000        -0.007875     -0.000003      0.000041
      6.08313      3.84470      3.84471        -0.007768      0.000011     -0.000037
     -0.00000      1.92235      7.68943        -0.000001      0.000117      0.000001
     -0.00000      1.92235      3.84471        -0.000000     -0.000008     -0.000002
      7.96446      5.76705      7.68942         0.000001     -0.000115      0.000002
      7.96446      5.76704      3.84471        -0.000000     -0.000006      0.000000
      7.96446     -0.00000      1.92235         0.000005      0.000010      0.000161
     -0.00000     -0.00000      5.76707        -0.000005      0.000010     -0.000158
     -0.00000      3.84470      1.92236        -0.000001     -0.000011      0.000059
      7.96446      3.84470      5.76706         0.000001     -0.000011     -0.000057
    total drift:                                0.000005      0.000007     -0.000007

  FREE ENERGIE OF THE ION-ELECTRON SYSTEM (eV)
  free  energy   TOTEN  =      -205.23352845 eV

  energy  without entropy=     -205.23352845  energy(sigma->0) =     -205.23352845

 stress matrix after NEB project (eV)
      0.17932      0.00001      0.00007
      0.00001      0.00880      0.00005
      0.00007      0.00005      0.00507
  FORCES: max atom, RMS     0.008075    0.003950
  FORCE total and by dimension    0.022345    0.008074
  Stress total and by dimension    0.179605    0.179318
 Quasi-Newton relaxation of ions (Broydens 2nd method)
  g(Force)  = 0.241E-04   g(Stress)= 0.486E-04

 Reset! Starting new Quasi-Newton update for ions

 reached required accuracy - stopping structural energy minimisation
 writing wavefunctions

 total charge

[...]

 magnetization (x)

# of ion       s       p       d       tot
    1       -0.000  -0.000   0.000   0.000
    2       -0.000  -0.000   0.000   0.000
    3       -0.000  -0.000  -0.000  -0.000
    4        0.000   0.000   0.000   0.000
    5       -0.000  -0.000  -0.000  -0.000
    6       -0.000  -0.000   0.000   0.000
    7       -0.000  -0.000  -0.000  -0.000
    8       -0.000  -0.000  -0.000  -0.000
    9       -0.000  -0.000   0.000  -0.000
   10        0.000   0.000   0.000   0.000
   11        0.000   0.000   0.000   0.000
   12        0.000  -0.000   0.000  -0.000
   13        0.000   0.000   0.000   0.000
   14       -0.000  -0.000   0.000  -0.000
   15       -0.000  -0.000   0.000  -0.000
   16        0.000   0.000   0.000   0.000
   17       -0.000  -0.000   0.000  -0.000
   18        0.000   0.000   0.000   0.000
   19       -0.000   0.000   0.000   0.000
   20       -0.000  -0.000   0.000  -0.000
   21       -0.000  -0.000   0.000  -0.000
   22        0.000   0.000   0.000   0.000
   23       -0.000   0.000   0.000   0.000
   24       -0.000  -0.000   0.000  -0.000
   25       -0.000  -0.000   0.000  -0.000
   26        0.000   0.000   0.000   0.000
   27       -0.000  -0.000   0.000  -0.000
   28        0.000   0.000   0.000   0.000
   29       -0.000   0.000   0.000   0.000
   30       -0.000   0.000   0.000   0.000
   31        0.000   0.000   0.000   0.000
   32        0.000   0.000   0.000   0.000
tot         -0.000   0.000  -0.000   0.000