 vasp.5.4.4.18Apr17-6-g9f103f2a35 (build Jul 16 2019 12:12:28) complex

 executed on             LinuxIFC date 2020.01.06  13:15:53

 INCAR:
 POTCAR:    PAW_PBE Li_sv 10Sep2004
 POTCAR:    PAW_PBE Ti_pv 07Sep2000
 POTCAR:    PAW_PBE O 08Apr2002
 POTCAR:    PAW_PBE F 08Apr2002
 POTCAR:    PAW_PBE Li_sv 10Sep2004
   VRHFIN =Li: 1s2s2p

   TITEL  = PAW_PBE Li_sv 10Sep2004
   POMASS =    7.010; ZVAL   =    3.000    mass and valenz
   ENMAX  =  499.034; ENMIN  =  374.276 eV

 POTCAR:    PAW_PBE Ti_pv 07Sep2000
   VRHFIN =Ti: d3 s1

   TITEL  = PAW_PBE Ti_pv 07Sep2000
   POMASS =   47.880; ZVAL   =   10.000    mass and valenz
   ENMAX  =  222.335; ENMIN  =  166.751 eV

 POTCAR:    PAW_PBE O 08Apr2002
   VRHFIN =O: s2p4

   TITEL  = PAW_PBE O 08Apr2002
   POMASS =   16.000; ZVAL   =    6.000    mass and valenz
   ENMAX  =  400.000; ENMIN  =  300.000 eV

 POTCAR:    PAW_PBE F 08Apr2002
   VRHFIN =F: s2p5

   TITEL  = PAW_PBE F 08Apr2002
   POMASS =   18.998; ZVAL   =    7.000    mass and valenz
   ENMAX  =  400.000; ENMIN  =  300.000 eV

 Optimization of the real space projectors (new method)

 maximal supplied QI-value         = 22.11
 optimisation between [QCUT,QGAM] = [ 11.28, 22.77] = [ 35.61,145.23] Ry
 Optimized for a Real-space Cutoff    1.31 Angstroem

   l    n(q)    QCUT    max X(q) W(low)/X(q) W(high)/X(q)  e(spline)
   0      9    11.276    10.506    0.19E-04    0.17E-04    0.32E-07
   0      9    11.276     8.367    0.38E-04    0.40E-04    0.65E-07
   1      8    11.276     8.983    0.55E-04    0.98E-04    0.20E-06
 Optimization of the real space projectors (new method)

[...]

   l    n(q)    QCUT    max X(q) W(low)/X(q) W(high)/X(q)  e(spline)
   0      8    11.387    20.381    0.89E-04    0.31E-03    0.27E-06
   0      8    11.387    15.268    0.93E-04    0.32E-03    0.29E-06
   1      8    11.387     5.964    0.53E-04    0.28E-03    0.29E-06
   1      8    11.387     5.382    0.37E-04    0.22E-03    0.26E-06
 Optimization of the real space projectors (new method)

 maximal supplied QI-value         = 24.76
 optimisation between [QCUT,QGAM] = [ 11.39, 22.77] = [ 36.31,145.25] Ry
 Optimized for a Real-space Cutoff    1.20 Angstroem

   l    n(q)    QCUT    max X(q) W(low)/X(q) W(high)/X(q)  e(spline)
   0      8    11.387    14.049    0.69E-04    0.23E-03    0.18E-06
   0      8    11.387     8.945    0.88E-04    0.30E-03    0.26E-06
   1      8    11.387     7.086    0.62E-04    0.27E-03    0.27E-06
   1      8    11.387     6.747    0.46E-04    0.23E-03    0.25E-06

  PAW_PBE Li_sv 10Sep2004               :
  PAW_PBE Ti_pv 07Sep2000               :
  PAW_PBE O 08Apr2002                   :
  PAW_PBE F 08Apr2002                   :

 POSCAR: Li1 Ti64 O64 F128
  positions in direct lattice
  velocities in cartesian coordinates
 exchange correlation table for  LEXCH =       14
   RHO(1)=    0.500       N(1)  =     2000
   RHO(2)=  100.500       N(2)  =     4000

 VTST: version 3.2, (02/03/18)

 CHAIN: initializing optimizer

 OPT: Using VASP QUASI-newton optimizer
 CHAIN: Read ICHAIN            0

 POSCAR: Li1 Ti64 O64 F128
  positions in direct lattice
  velocities in cartesian coordinates

 ion  position               nearest neighbor table
   1  0.176  0.133  0.609-  83 2.02  76 2.02 234 2.02  51 2.81
   2  0.995  0.995  0.995- 118 1.86 103 1.89  68 1.89 212 2.03 171 2.03 130 2.04
   3  0.998  0.993  0.493- 119 1.82  67 1.83 193 1.97 172 1.97 213 1.99 131 2.05
   4  0.006  0.495  0.997-  89 1.84 117 1.86 138 1.93 132 1.97 214 2.02 194 2.02
   5  0.994  0.502  0.507-  66 1.84 104 1.85 223 1.92 215 1.94 137 2.03 173 2.03
   6  0.494  0.994  0.001- 101 1.83 121 1.84 140 1.96 133 1.97 216 2.01 174 2.02
   7  0.502  0.009  0.499- 112 1.77 134 1.92 139 1.92 191 1.93 175 1.93 225 2.03
   8  0.504  0.496  0.996-  90 1.88  70 1.88 120 1.89 192 2.03 135 2.03 217 2.05
   9  0.492  0.500  0.495- 102 1.82  69 1.85 224 1.98 218 1.99 136 2.01 176 2.04
  10  0.006  0.003  0.257-  91 1.84  67 1.86 219 1.93 227 1.97 130 2.01 197 2.06
  11  0.999  0.007  0.757-  68 1.79 113 1.85 177 1.95 198 1.98 228 2.03 131 2.06
  12  0.994  0.492  0.252- 122 1.82 107 1.84 137 1.93 132 1.97 178 2.03 220 2.04
  13  0.993  0.497  0.742-  66 1.82 108 1.82 226 1.94 221 1.97 138 2.02 179 2.04
  14  0.506  0.009  0.252- 114 1.82  92 1.84 133 1.93 139 1.98 195 2.00 231 2.05
  15  0.492  0.005  0.750- 115 1.83 105 1.83 140 1.93 134 1.99 232 2.01 180 2.02
  16  0.493  0.497  0.257-  69 1.83 106 1.84 229 1.96 222 2.00 135 2.02 181 2.03
  17  0.501  0.504  0.759-  70 1.80 116 1.87 182 1.94 196 1.97 230 2.04 136 2.07
  18  0.996  0.257  0.002- 117 1.82 110 1.88 141 1.93 146 1.98 183 2.01 212 2.02
  19  0.999  0.247  0.495-  74 1.88 202 2.02 142 2.02 213 2.03 223 2.03 184 2.03
  20  0.998  0.758  0.006- 118 1.81  71 1.85 203 1.95 185 1.98 148 2.04 214 2.05
  21  0.997  0.758  0.506- 119 1.82  72 1.84 204 1.95 186 1.98 215 2.02 147 2.02
  22  0.495  0.258  0.001- 120 1.80 109 1.85 150 1.96 143 1.98 187 2.02 216 2.07
  23  0.510  0.246  0.499-  93 1.78 112 1.91 144 1.93 149 1.94 224 1.97 199 2.02
  24  0.507  0.756  1.000-  94 1.82 121 1.84 152 1.94 145 1.99 217 2.01 200 2.02
  25  0.507  0.753  0.509-  73 1.79  95 1.83 218 1.96 225 1.97 201 2.02 151 2.07
  26  1.000  0.256  0.259-  74 1.78 122 1.84 209 1.96 188 1.98 219 2.04 141 2.04
  27  0.006  0.240  0.747- 113 1.81  96 1.85 142 1.94 146 1.95 210 2.04 226 2.05
  28  0.006  0.748  0.243-  71 1.82  97 1.85 220 1.93 227 1.98 147 2.05 211 2.05
  29  0.993  0.751  0.743- 111 1.83  72 1.83 228 1.94 221 1.97 189 2.02 148 2.02
  30  0.508  0.242  0.251-  98 1.81 114 1.83 143 1.93 149 1.96 229 2.01 205 2.03
  31  0.507  0.243  0.750-  99 1.83 115 1.85 150 1.93 144 1.97 230 2.01 206 2.03
  32  0.506  0.752  0.252- 100 1.79 151 1.92 231 1.93 145 1.94 222 1.94 207 2.00
  33  0.501  0.742  0.744- 116 1.81  73 1.84 190 1.93 208 1.97 152 2.02 232 2.06
  34  0.255  0.999  0.007-  75 1.84 101 1.85 246 1.93 233 1.97 171 2.00 157 2.08
  35  0.250  0.991  0.507- 128 1.79  76 1.89 172 1.95 191 1.98 156 1.99 234 2.05
  36  0.244  0.508  0.997- 123 1.83  89 1.83 159 1.94 153 1.97 192 2.02 245 2.04
  37  0.255  0.498  0.508-  77 1.85 102 1.87 127 1.90 173 2.02 235 2.02 158 2.04
  38  0.757  0.000  0.995- 103 1.79  81 1.87 236 1.95 249 1.96 154 2.05 174 2.05
  39  0.750  0.007  0.495- 124 1.83  80 1.84 193 1.94 155 2.00 175 2.00 250 2.03
  40  0.742  0.500  0.005-  90 1.80  78 1.86 237 1.95 247 1.96 161 2.03 194 2.05
  41  0.756  0.498  0.505- 104 1.84  79 1.85 248 1.95 238 1.99 160 2.02 176 2.03
  42  0.244  0.004  0.244-  75 1.83  91 1.84 239 1.94 252 1.96 195 2.05 156 2.08
  43  0.256  0.998  0.744- 105 1.82  76 1.88 253 1.92 240 1.98 157 2.00 177 2.03
  44  0.255  0.492  0.251- 106 1.83 129 1.83 158 1.93 153 1.97 178 2.03 241 2.04
  45  0.248  0.508  0.743-  77 1.79 125 1.83 179 1.94 196 1.97 159 2.05 251 2.05
  46  0.745  0.001  0.257-  80 1.85  92 1.86 256 1.94 242 1.95 197 2.00 154 2.01
  47  0.749  0.006  0.756-  81 1.82 126 1.84 180 1.94 198 1.97 257 2.03 155 2.07
  48  0.756  0.498  0.243-  78 1.82 107 1.84 243 1.96 254 1.96 181 2.04 160 2.05
  49  0.757  0.497  0.743- 108 1.83  79 1.83 255 1.94 244 1.98 182 2.03 161 2.03
  50  0.258  0.251  0.005- 109 1.83  82 1.85 245 1.94 233 1.98 183 2.04 168 2.04
  51  0.256  0.260  0.505- 127 1.77  83 1.91 199 1.94 184 1.96 167 1.99 234 2.12   1 2.81
  52  0.252  0.743  0.993- 123 1.82  86 1.84 200 1.94 185 1.96 162 2.04 246 2.05
  53  0.252  0.755  0.493-  85 1.82 128 1.88 201 1.95 186 1.97 235 1.97 163 2.05
  54  0.758  0.251  0.006- 110 1.80  84 1.85 236 1.94 247 1.94 170 2.03 187 2.04
  55  0.744  0.242  0.498- 124 1.83  93 1.87 169 1.93 202 1.93 164 1.97 248 2.03
  56  0.742  0.749  0.994-  94 1.82  88 1.83 237 1.94 249 1.95 203 2.02 165 2.04
  57  0.741  0.752  0.494-  95 1.82  87 1.86 250 1.95 238 1.96 166 2.01 204 2.03
  58  0.251  0.257  0.242- 129 1.82  82 1.82 205 1.96 188 1.96 239 2.04 167 2.07
  59  0.246  0.251  0.744-  96 1.85  83 1.86 251 1.92 240 1.99 168 2.00 206 2.02
  60  0.244  0.749  0.256-  97 1.82  85 1.86 241 1.93 252 1.98 162 2.02 207 2.06
[...]
 243  0.749  0.625  0.244-  64 1.93  48 1.96
 244  0.744  0.624  0.745-  65 1.96  49 1.98
 245  0.247  0.376  0.005-  50 1.94  36 2.04
 246  0.243  0.875  0.010-  34 1.93  52 2.05
 247  0.746  0.375  0.985-  54 1.94  40 1.96
 248  0.756  0.373  0.488-  41 1.95  55 2.03
 249  0.743  0.875  0.005-  56 1.95  38 1.96
 250  0.765  0.876  0.501-  57 1.95  39 2.03
 251  0.247  0.375  0.744-  59 1.92  45 2.05
 252  0.252  0.877  0.245-  42 1.96  60 1.98
 253  0.241  0.874  0.736-  43 1.92  61 2.06
 254  0.744  0.374  0.266-  62 1.93  48 1.96
 255  0.750  0.372  0.760-  49 1.94  63 2.04
 256  0.751  0.875  0.247-  46 1.94  64 1.95
 257  0.746  0.875  0.747-  65 1.94  47 2.03

IMPORTANT INFORMATION: All symmetrisations will be switched off!
NOSYMM: (Re-)initialisation of all symmetry stuff for point group C_1.

 KPOINTS: Title

Automatic generation of k-mesh.
Space group operators:
 irot       det(A)        alpha          n_x          n_y          n_z        tau_x        tau_y        tau_z
    1     1.000000     0.000001     1.000000     0.000000     0.000000     0.000000     0.000000     0.000000

 Subroutine IBZKPT returns following result:

 Found      4 irreducible k-points:

 Following reciprocal coordinates:
            Coordinates               Weight
  0.250000  0.250000  0.250000      2.000000
 -0.250000  0.250000  0.250000      2.000000
  0.250000 -0.250000  0.250000      2.000000
 -0.250000 -0.250000  0.250000      2.000000

 Following cartesian coordinates:
            Coordinates               Weight
  0.016206  0.016206  0.016206      2.000000
 -0.016206  0.016206  0.016206      2.000000
  0.016206 -0.016206  0.016206      2.000000
 -0.016206 -0.016206  0.016206      2.000000

 SYSTEM =  LTO
 POSCAR =  Li1 Ti64 O64 F128

 Startparameter for this run:
   NWRITE =      2    write-flag & timer
   PREC   = accura    normal or accurate (medium, high low for compatibility)
   ISTART =      1    job   : 0-new  1-cont  2-samecut
   ICHARG =      0    charge: 1-file 2-atom 10-const
   ISPIN  =      2    spin polarized calculation?
   LNONCOLLINEAR =      F non collinear calculations
   LSORBIT =      F    spin-orbit coupling
   INIWAV =      1    electr: 0-lowe 1-rand  2-diag
   LASPH  =      T    aspherical Exc in radial PAW
   METAGGA=      F    non-selfconsistent MetaGGA calc.

 Electronic Relaxation 1
   ENCUT  =  500.0 eV  36.75 Ry    6.06 a.u.  28.13 28.13 28.13*2*pi/ulx,y,z
   ENINI  =  500.0     initial cutoff
   ENAUG  =  628.9 eV  augmentation charge cutoff
   NELM   =     60;   NELMIN=  2; NELMDL=  0     # of ELM steps
   EDIFF  = 0.1E-05   stopping-criterion for ELM
   LREAL  =      T    real-space projection
   NLSPLINE    = F    spline interpolate recip. space projectors
   LCOMPAT=      F    compatible to vasp.4.4
   GGA_COMPAT  = T    GGA compatible to vasp.4.4-vasp.4.6
   LMAXPAW     = -100 max onsite density
   LMAXMIX     =    4 max onsite mixed and CHGCAR
   VOSKOWN=      0    Vosko Wilk Nusair interpolation
   ROPT   =   -0.00010  -0.00010  -0.00010  -0.00010
 Ionic relaxation
   EDIFFG = -.5E-01   stopping-criterion for IOM
[...]
   0.307E+02 0.964E+01 -.418E-01   -.318E+02 -.945E+01 -.854E+00   0.101E+01 -.184E+00 0.895E+00   -.263E-02 -.172E-02 0.164E-02
   -.746E+01 0.192E+01 0.231E+02   0.840E+01 -.298E+01 -.231E+02   -.941E+00 0.105E+01 0.227E-02   0.276E-02 -.143E-02 0.128E-02
   -.208E+02 0.397E+01 -.146E+02   0.216E+02 -.487E+01 0.149E+02   -.846E+00 0.887E+00 -.302E+00   0.479E-02 -.422E-03 -.171E-02
   -.263E+02 0.169E+02 0.576E+01   0.265E+02 -.169E+02 -.571E+01   -.224E+00 -.513E-01 -.410E-01   -.204E-03 0.267E-02 0.608E-03
   0.862E+01 0.406E+02 -.983E+01   -.831E+01 -.415E+02 0.850E+01   -.307E+00 0.940E+00 0.132E+01   0.188E-02 0.466E-04 0.122E-02
   -.157E+02 0.970E+00 -.172E+02   0.164E+02 -.110E+01 0.184E+02   -.774E+00 0.122E+00 -.117E+01   0.248E-02 -.964E-03 0.155E-02
   -.174E+02 0.649E+02 0.152E+02   0.170E+02 -.656E+02 -.143E+02   0.444E+00 0.643E+00 -.829E+00   0.330E-02 0.934E-03 -.238E-02
   0.162E+02 -.201E+02 -.314E+01   -.169E+02 0.212E+02 0.289E+01   0.743E+00 -.113E+01 0.250E+00   -.822E-04 -.347E-03 -.613E-03
   -.211E+02 0.249E+02 -.335E+01   0.220E+02 -.258E+02 0.470E+01   -.887E+00 0.878E+00 -.134E+01   0.471E-03 -.153E-02 0.869E-03
   -.222E+02 0.117E+02 0.347E+02   0.230E+02 -.117E+02 -.358E+02   -.821E+00 -.882E-01 0.105E+01   -.144E-02 0.218E-02 -.221E-02
   -.479E+01 -.187E+02 0.366E+02   0.515E+01 0.198E+02 -.372E+02   -.361E+00 -.108E+01 0.592E+00   -.326E-02 0.375E-02 0.849E-03
   0.150E+02 0.228E+01 -.230E+02   -.158E+02 -.227E+01 0.241E+02   0.848E+00 -.221E-01 -.103E+01   -.153E-03 -.320E-02 -.239E-02
   -.218E+02 -.112E+02 -.147E+02   0.227E+02 0.109E+02 0.156E+02   -.844E+00 0.233E+00 -.895E+00   -.372E-03 -.360E-02 0.181E-02
   0.450E+02 0.813E+01 0.274E+02   -.460E+02 -.781E+01 -.285E+02   0.101E+01 -.309E+00 0.117E+01   0.281E-02 0.394E-02 0.246E-02
   -.369E+02 0.341E+02 -.285E+02   0.377E+02 -.343E+02 0.276E+02   -.786E+00 0.199E+00 0.891E+00   0.254E-02 -.371E-02 -.164E-02
   -.961E+01 0.204E+02 0.435E+01   0.105E+02 -.216E+02 -.414E+01   -.845E+00 0.119E+01 -.207E+00   -.242E-04 -.518E-02 -.108E-02
   -.451E+01 -.303E+02 0.277E+01   0.431E+01 0.317E+02 -.379E+01   0.202E+00 -.138E+01 0.101E+01   0.244E-03 0.287E-02 0.722E-03
   0.176E+02 0.311E+01 -.176E+02   -.182E+02 -.315E+01 0.183E+02   0.578E+00 0.478E-01 -.700E+00   -.300E-02 0.749E-02 0.208E-02
   -.167E+02 -.265E+02 -.486E+02   0.166E+02 0.276E+02 0.495E+02   0.102E+00 -.114E+01 -.903E+00   -.171E-02 -.836E-03 -.758E-03
   -.198E+02 -.828E+01 0.262E+02   0.208E+02 0.813E+01 -.271E+02   -.101E+01 0.143E+00 0.912E+00   -.251E-03 -.780E-02 -.146E-02
   -.113E+02 -.104E+02 0.111E+02   0.124E+02 0.102E+02 -.120E+02   -.107E+01 0.271E+00 0.908E+00   0.227E-04 0.116E-02 0.186E-02
   -.118E+02 -.209E+01 -.284E+02   0.128E+02 0.234E+01 0.295E+02   -.955E+00 -.236E+00 -.104E+01   0.326E-02 0.513E-02 0.542E-02
   -.252E+02 -.884E+02 0.258E+02   0.252E+02 0.892E+02 -.248E+02   0.469E-01 -.789E+00 -.947E+00   0.336E-02 0.235E-02 -.558E-02
   0.104E+02 0.164E+02 0.257E+01   -.102E+02 -.175E+02 -.376E+01   -.222E+00 0.104E+01 0.118E+01   -.684E-03 -.393E-02 -.344E-02
   0.124E+02 -.110E+02 0.860E+01   -.122E+02 0.117E+02 -.935E+01   -.239E+00 -.738E+00 0.747E+00   0.744E-03 -.183E-02 0.341E-02
   -.272E+02 -.141E+02 -.223E+02   0.279E+02 0.142E+02 0.235E+02   -.696E+00 -.660E-01 -.117E+01   -.252E-02 -.132E-02 0.279E-02
   0.281E+02 0.413E+01 -.652E+01   -.287E+02 -.490E+01 0.636E+01   0.541E+00 0.760E+00 0.157E+00   -.295E-02 -.399E-02 -.253E-02
   0.179E+02 0.197E+01 0.182E+02   -.189E+02 -.212E+01 -.192E+02   0.958E+00 0.155E+00 0.954E+00   0.568E-03 0.186E-02 -.586E-02
   0.320E+01 0.224E+02 0.203E+02   -.414E+01 -.222E+02 -.212E+02   0.924E+00 -.188E+00 0.917E+00   -.225E-03 0.433E-02 0.586E-02
   0.811E+01 -.324E+02 0.248E+02   -.819E+01 0.335E+02 -.261E+02   0.885E-01 -.113E+01 0.123E+01   0.328E-02 0.247E-02 0.150E-02
   -.767E+01 -.469E+02 -.262E+02   0.686E+01 0.471E+02 0.253E+02   0.810E+00 -.243E+00 0.823E+00   0.251E-02 0.482E-02 -.173E-02
   0.245E+02 0.505E+01 -.211E+01   -.255E+02 -.529E+01 0.313E+01   0.102E+01 0.241E+00 -.101E+01   -.148E-04 -.133E-02 -.611E-03
[...]
   0.200E+02 0.758E+01 0.105E+02   -.246E+02 -.826E+01 -.121E+02   0.470E+01 0.681E+00 0.162E+01   0.371E-04 0.172E-02 0.139E-02
   0.141E+02 -.165E+02 -.291E+02   -.157E+02 0.213E+02 0.303E+02   0.158E+01 -.484E+01 -.120E+01   0.121E-02 0.165E-02 0.231E-02
   0.328E+02 0.170E+02 -.335E+02   -.365E+02 -.223E+02 0.364E+02   0.364E+01 0.526E+01 -.298E+01   0.291E-03 -.225E-02 -.127E-02
   0.123E+02 -.137E+02 0.431E+02   -.140E+02 0.146E+02 -.511E+02   0.168E+01 -.983E+00 0.806E+01   -.926E-03 -.172E-02 0.127E-02
   -.288E+02 -.111E+02 0.347E+02   0.308E+02 0.794E+01 -.395E+02   -.201E+01 0.321E+01 0.482E+01   -.119E-02 -.397E-02 -.922E-03
   0.133E+02 -.308E+01 -.866E+01   -.158E+02 0.362E+01 0.127E+02   0.257E+01 -.544E+00 -.403E+01   -.167E-03 0.157E-02 -.354E-02
   -.644E+02 0.200E+01 0.552E+01   0.710E+02 0.154E+01 -.310E+01   -.660E+01 -.355E+01 -.243E+01   -.185E-02 0.401E-02 0.296E-02
   0.716E+01 -.313E+02 0.158E+02   -.695E+01 0.376E+02 -.158E+02   -.213E+00 -.627E+01 -.934E-02   0.939E-03 0.407E-02 -.280E-03
   0.129E+02 0.829E+01 0.259E+02   -.987E+01 -.897E+01 -.276E+02   -.304E+01 0.675E+00 0.176E+01   0.620E-03 0.108E-02 0.767E-03
   0.288E+02 0.378E+02 0.281E+02   -.332E+02 -.445E+02 -.330E+02   0.437E+01 0.668E+01 0.484E+01   0.969E-03 -.302E-02 -.197E-03
   0.129E+02 -.211E+02 -.456E+02   -.151E+02 0.227E+02 0.551E+02   0.227E+01 -.162E+01 -.955E+01   -.872E-03 -.528E-02 -.102E-02
   0.915E+01 0.333E+01 -.402E+02   -.990E+01 -.764E+01 0.451E+02   0.738E+00 0.430E+01 -.493E+01   -.503E-03 -.109E-02 0.496E-03
   -.844E+01 0.580E+01 0.198E+02   0.110E+02 -.590E+01 -.241E+02   -.255E+01 0.820E-01 0.423E+01   -.109E-02 0.506E-02 0.459E-03
   0.651E+01 -.468E+01 -.127E+02   -.924E+01 0.893E+01 0.931E+01   0.272E+01 -.425E+01 0.337E+01   -.212E-03 0.108E-02 0.119E-03
   0.622E+01 -.752E+01 -.825E+00   0.195E-11 -.108E-11 0.870E-12   -.623E+01 0.753E+01 0.835E+00   -.778E-03 0.421E-02 -.317E-02

 POSITION                                       TOTAL-FORCE (eV/Angst)
      2.71105      2.05492      9.38795         0.007051     -0.006544     -0.010781
     15.34240     15.35473     15.34775        -0.021628     -0.019186     -0.010102
     15.39209     15.31781      7.60879        -0.007161     -0.010851     -0.002106
      0.08845      7.63960     15.38071         0.004122     -0.010271      0.000263
     15.33378      7.74683      7.81659        -0.015639     -0.006400      0.019909
      7.61754     15.33810      0.01025         0.003654     -0.006099      0.002390
      7.73771      0.13595      7.69624         0.011493      0.016119     -0.005417
      7.77970      7.64497     15.36915         0.005953     -0.014383     -0.012343
      7.59164      7.70716      7.63763        -0.012098      0.000864     -0.004191
      0.08963      0.05238      3.96351         0.003614     -0.000348      0.015292
     15.41437      0.10058     11.67658        -0.014873      0.001434      0.007219
     15.33995      7.58969      3.88350        -0.007462     -0.022207     -0.003378
     15.32226      7.66482     11.44098        -0.011197      0.003751     -0.013418
      7.79979      0.13878      3.88049         0.007730      0.025026      0.008383
      7.59184      0.07822     11.56973         0.006385      0.011979     -0.000522
      7.60644      7.66040      3.96731        -0.009306     -0.011030      0.009629
      7.72161      7.77725     11.70248        -0.004828      0.013456      0.011168
     15.36209      3.96519      0.02678        -0.018750      0.022540      0.005680
     15.41752      3.81058      7.62847        -0.003996      0.002459     -0.012149
     15.39661     11.69498      0.08657         0.000356      0.012091      0.000470
     15.37397     11.68609      7.79962        -0.002674      0.019979      0.010509
      7.63649      3.98363      0.00911         0.006451      0.010409      0.007025
      7.86365      3.80213      7.69908         0.012178     -0.003353     -0.008043
      7.82297     11.66972     15.41906         0.016943      0.009797     -0.010232
      7.82016     11.62292      7.84957         0.017359      0.005205      0.006525
     15.42493      3.95398      3.99075        -0.002555      0.012641      0.006021
      0.09256      3.70811     11.53078        -0.006469     -0.012781     -0.001334
      0.09709     11.54585      3.74898         0.012222      0.005678     -0.010093
     15.31671     11.57939     11.46454        -0.017338      0.001019      0.001005
      7.83231      3.73235      3.87659         0.006900     -0.007378     -0.001094
      7.82429      3.75036     11.56538         0.012185     -0.012016     -0.001763
      7.81148     11.59563      3.88728         0.024189      0.004840      0.006998
      7.72842     11.44646     11.47311         0.005258     -0.012495      0.000298
      3.93901     15.41669      0.10748         0.017306     -0.005887      0.015939
      3.86222     15.29460      7.81581         0.010028     -0.015429     -0.005615
      3.75911      7.83736     15.37413        -0.004827      0.008606     -0.004964
      3.92776      7.67830      7.83504         0.016450     -0.008536      0.011052
     11.68178      0.00569     15.34887         0.005262     -0.001126     -0.015342
     11.57049      0.10782      7.63535        -0.006819      0.018786     -0.002038
     11.44364      7.71567      0.08015        -0.003403     -0.010598      0.004253
     11.65518      7.68066      7.79443         0.014028     -0.002757      0.013260
      3.76215      0.05701      3.76669        -0.007540      0.006537     -0.001398
      3.95635     15.38791     11.47481         0.017019     -0.007326     -0.008378
      3.93610      7.59319      3.87328         0.006110     -0.019656     -0.003944
      3.82103      7.84182     11.45492         0.001522      0.013925     -0.001193
     11.48872      0.01220      3.96098        -0.015817      0.016688      0.016060
     11.55279      0.09182     11.66455         0.005989      0.017902      0.010515
     11.66754      7.68745      3.74627         0.007198     -0.012689     -0.014565
     11.68097      7.66068     11.45456         0.012767      0.004959     -0.006514
      3.97319      3.87302      0.08336         0.020079      0.013361      0.017760
      3.94267      4.00553      7.78404         0.011695      0.021922     -0.006804
      3.88646     11.46910     15.31250        -0.002164     -0.015921     -0.008817
      3.88751     11.64980      7.61144         0.004157      0.009843     -0.002998
     11.68736      3.87460      0.09445        -0.008572      0.005058      0.011990
     11.47428      3.73419      7.68521        -0.019388     -0.016772      0.000184
     11.44203     11.55160     15.33547        -0.010372      0.003080     -0.017407
     11.43803     11.60435      7.62316        -0.017028      0.006161      0.001817
      3.87063      3.96596      3.73874         0.004349      0.015516     -0.008956
      3.78774      3.87563     11.47998        -0.005192      0.007214     -0.019194
      3.75687     11.55840      3.94587        -0.017106      0.000907      0.005933
[...]
     11.55686      9.64199      3.77112         0.006560      0.004671     -0.006435
     11.47874      9.62922     11.49635         0.010941     -0.002898     -0.005575
      3.81435      5.80221      0.07971        -0.001210     -0.007255      0.006015
      3.75527     13.49297      0.15015         0.002018      0.006107      0.006233
     11.50331      5.78028     15.18995        -0.001646      0.000996     -0.006664
     11.66917      5.74669      7.52789         0.015141      0.004114     -0.002692
     11.46241     13.49429      0.07494        -0.003130     -0.003609     -0.007448
     11.79420     13.51640      7.73596         0.008723     -0.003382     -0.007999
      3.81205      5.79171     11.47483        -0.001357     -0.007920     -0.011750
      3.88899     13.52362      3.78265        -0.005916     -0.001634     -0.006609
      3.71460     13.48998     11.34645        -0.003483      0.001388     -0.000007
     11.47425      5.76947      4.10670        -0.008460      0.008902      0.006466
     11.56695      5.74519     11.72298        -0.008570     -0.001591      0.007136
     11.58642     13.50274      3.80453        -0.005025     -0.007062      0.009621
     11.50486     13.49619     11.52199        -0.008493     -0.001456      0.011388
    total drift:                               -0.012581      0.014802      0.006620

  FREE ENERGIE OF THE ION-ELECTRON SYSTEM (eV)
  free  energy   TOTEN  =     -1758.12658598 eV

  energy  without entropy=    -1758.12658598  energy(sigma->0) =    -1758.12658598

 stress matrix after NEB project (eV)
    -18.02187      0.28724      0.16256
      0.28716      5.67545     -0.35456
      0.16257     -0.35460    -20.95929
  FORCES: max atom, RMS     0.046763    0.015725
  FORCE total and by dimension    0.252088    0.042558
  Stress total and by dimension   28.226933   20.959294
 Quasi-Newton relaxation of ions (Broydens 2nd method)
  g(Force)  = 0.307E-02   g(Stress)= 0.000E+00

 Reset! Starting new Quasi-Newton update for ions

 reached required accuracy - stopping structural energy minimisation
 writing wavefunctions

 total charge

[...]

 magnetization (x)

# of ion       s       p       d       tot
    1        0.000   0.000   0.000   0.000
    2       -0.000  -0.000   0.000   0.000
    3        0.000  -0.000   0.005   0.005
    4        0.000  -0.000  -0.000  -0.000
    5       -0.000  -0.000   0.006   0.006
    6       -0.000  -0.000  -0.000  -0.000
    7        0.000   0.000   0.000   0.000
    8       -0.000  -0.000   0.000   0.000
    9        0.000   0.000   0.000   0.000
   10       -0.000  -0.000  -0.000  -0.000
   11       -0.000   0.000   0.000   0.000
   12        0.000  -0.000  -0.000  -0.000
   13       -0.000  -0.000  -0.000  -0.000
   14       -0.000  -0.000  -0.000  -0.000
   15       -0.000  -0.000  -0.000  -0.000
   16       -0.000  -0.000  -0.000  -0.000
   17        0.000  -0.000   0.000   0.000
   18       -0.000  -0.000  -0.000  -0.000
   19        0.005   0.006   0.923   0.934
   20        0.000   0.000  -0.000  -0.000
   21       -0.000  -0.000   0.000   0.000
   22        0.000  -0.000  -0.000  -0.000
   23       -0.000   0.000   0.001   0.001
   24       -0.000  -0.000  -0.000  -0.000
   25        0.000   0.000   0.000   0.000
   26       -0.000  -0.000  -0.004  -0.005
   27       -0.000  -0.000  -0.000  -0.000
   28        0.000   0.000   0.000   0.000
   29       -0.000  -0.000  -0.000  -0.000
   30       -0.000  -0.000  -0.000  -0.000
   31       -0.000  -0.000   0.000   0.000
   32        0.000  -0.000   0.000   0.000
   33       -0.000  -0.000  -0.000  -0.000
   34        0.000   0.000  -0.000  -0.000
   35        0.000   0.000   0.000   0.000
   36       -0.000  -0.000   0.000   0.000
   37        0.000   0.000   0.001   0.001
   38       -0.000  -0.000  -0.000  -0.000
   39        0.000   0.000   0.003   0.003
   40       -0.000  -0.000  -0.000  -0.000
   41        0.000   0.000   0.002   0.002
   42        0.000  -0.000   0.000   0.000
   43       -0.000  -0.000  -0.000  -0.000
   44       -0.000  -0.000   0.000   0.000
   45       -0.000  -0.000   0.000  -0.000
   46       -0.000  -0.000  -0.000  -0.000
   47       -0.000  -0.000   0.000   0.000
   48        0.000  -0.000   0.000   0.000
   49       -0.000  -0.000  -0.000  -0.000
   50       -0.000  -0.000  -0.000  -0.000
   51       -0.000  -0.000   0.003   0.003
   52       -0.000   0.000  -0.000  -0.000
   53        0.000   0.000   0.000   0.000
   54       -0.000  -0.000  -0.000  -0.000
   55       -0.000  -0.000   0.010   0.010
   56        0.000  -0.000  -0.000  -0.000
   57        0.000   0.000   0.000   0.000
   58        0.000   0.000   0.000   0.000
   59       -0.000  -0.000  -0.000  -0.000
   60       -0.000  -0.000  -0.000  -0.000
[...]
  243        0.000  -0.000   0.000   0.000
  244       -0.000  -0.000   0.000  -0.000
  245       -0.000   0.000   0.000   0.000
  246        0.000   0.000   0.000   0.000
  247        0.000   0.000   0.000   0.000
  248        0.000  -0.000   0.000  -0.000
  249       -0.000  -0.000   0.000  -0.000
  250       -0.000  -0.000   0.000  -0.000
  251       -0.000  -0.000   0.000  -0.000
  252        0.000   0.000   0.000   0.000
  253       -0.000  -0.000   0.000  -0.000
  254       -0.000  -0.000   0.000  -0.000
  255       -0.000  -0.000   0.000  -0.000
  256        0.000  -0.000   0.000  -0.000
  257       -0.000  -0.000   0.000  -0.000
tot          0.002  -0.017   0.952   0.937