 vasp.5.4.4.18Apr17-6-g9f103f2a35 (build Jul 16 2019 12:12:28) complex

 executed on             LinuxIFC date 2020.01.06  10:23:35

 INCAR:
 POTCAR:    PAW_PBE Li_sv 10Sep2004
 POTCAR:    PAW_PBE Ti_pv 07Sep2000
 POTCAR:    PAW_PBE O 08Apr2002
 POTCAR:    PAW_PBE F 08Apr2002
 POTCAR:    PAW_PBE Li_sv 10Sep2004
   VRHFIN =Li: 1s2s2p

   TITEL  = PAW_PBE Li_sv 10Sep2004
   POMASS =    7.010; ZVAL   =    3.000    mass and valenz
   ENMAX  =  499.034; ENMIN  =  374.276 eV

 POTCAR:    PAW_PBE Ti_pv 07Sep2000
   VRHFIN =Ti: d3 s1

   TITEL  = PAW_PBE Ti_pv 07Sep2000
   POMASS =   47.880; ZVAL   =   10.000    mass and valenz
   ENMAX  =  222.335; ENMIN  =  166.751 eV

 POTCAR:    PAW_PBE O 08Apr2002
   VRHFIN =O: s2p4

   TITEL  = PAW_PBE O 08Apr2002
   POMASS =   16.000; ZVAL   =    6.000    mass and valenz
   ENMAX  =  400.000; ENMIN  =  300.000 eV

 POTCAR:    PAW_PBE F 08Apr2002
   VRHFIN =F: s2p5

   TITEL  = PAW_PBE F 08Apr2002
   POMASS =   18.998; ZVAL   =    7.000    mass and valenz
   ENMAX  =  400.000; ENMIN  =  300.000 eV

 Optimization of the real space projectors (new method)

 maximal supplied QI-value         = 22.11
 optimisation between [QCUT,QGAM] = [ 11.28, 22.77] = [ 35.61,145.23] Ry
 Optimized for a Real-space Cutoff    1.31 Angstroem

   l    n(q)    QCUT    max X(q) W(low)/X(q) W(high)/X(q)  e(spline)
   0      9    11.276    10.506    0.19E-04    0.17E-04    0.32E-07
   0      9    11.276     8.367    0.38E-04    0.40E-04    0.65E-07
   1      8    11.276     8.983    0.55E-04    0.98E-04    0.20E-06
 Optimization of the real space projectors (new method)

[...]

   l    n(q)    QCUT    max X(q) W(low)/X(q) W(high)/X(q)  e(spline)
   0      8    11.387    20.381    0.89E-04    0.31E-03    0.27E-06
   0      8    11.387    15.268    0.93E-04    0.32E-03    0.29E-06
   1      8    11.387     5.964    0.53E-04    0.28E-03    0.29E-06
   1      8    11.387     5.382    0.37E-04    0.22E-03    0.26E-06
 Optimization of the real space projectors (new method)

 maximal supplied QI-value         = 24.76
 optimisation between [QCUT,QGAM] = [ 11.39, 22.77] = [ 36.31,145.25] Ry
 Optimized for a Real-space Cutoff    1.20 Angstroem

   l    n(q)    QCUT    max X(q) W(low)/X(q) W(high)/X(q)  e(spline)
   0      8    11.387    14.049    0.69E-04    0.23E-03    0.18E-06
   0      8    11.387     8.945    0.88E-04    0.30E-03    0.26E-06
   1      8    11.387     7.086    0.62E-04    0.27E-03    0.27E-06
   1      8    11.387     6.747    0.46E-04    0.23E-03    0.25E-06

  PAW_PBE Li_sv 10Sep2004               :
  PAW_PBE Ti_pv 07Sep2000               :
  PAW_PBE O 08Apr2002                   :
  PAW_PBE F 08Apr2002                   :

 POSCAR: config 24
  positions in direct lattice
  velocities in cartesian coordinates
 exchange correlation table for  LEXCH =       14
   RHO(1)=    0.500       N(1)  =     2000
   RHO(2)=  100.500       N(2)  =     4000

 VTST: version 3.2, (02/03/18)

 CHAIN: initializing optimizer

 OPT: Using VASP QUASI-newton optimizer
 CHAIN: Read ICHAIN            0

 POSCAR: config 24
  positions in direct lattice
  velocities in cartesian coordinates

 ion  position               nearest neighbor table
   1  0.374  0.410  0.903- 192 1.97 159 2.04  70 2.04   8 2.86
   2  0.996  0.995  0.994- 118 1.87  68 1.88 103 1.90 171 2.03 130 2.04 212 2.05
   3  0.999  0.991  0.494- 119 1.82  67 1.83 172 1.95 193 1.96 131 2.01 213 2.10
   4  0.005  0.496  0.996- 117 1.85  89 1.86 138 1.93 132 1.99 214 2.01 194 2.02
   5  0.994  0.504  0.508-  66 1.83 104 1.84 215 1.93 223 2.01 173 2.03 137 2.04
   6  0.495  0.994  0.000- 101 1.83 121 1.86 140 1.96 133 1.97 174 2.02 216 2.05
   7  0.502  0.005  0.498- 112 1.91 191 2.01 134 2.01 139 2.02 175 2.03 225 2.04
   8  0.508  0.497  0.997-  90 1.84 120 1.90  70 1.93 135 2.00 217 2.02 192 2.13   1 2.86
   9  0.491  0.497  0.496- 102 1.82  69 1.87 224 1.94 218 2.02 136 2.03 176 2.08
  10  0.007  0.004  0.256-  91 1.83  67 1.86 219 1.96 227 1.97 130 2.01 197 2.05
  11  0.003  0.007  0.757-  68 1.79 113 1.84 177 1.95 198 1.98 228 2.05 131 2.06
  12  0.994  0.493  0.251- 107 1.84 122 1.86 137 1.93 132 1.98 220 2.01 178 2.03
  13  0.993  0.499  0.741- 108 1.82  66 1.82 226 1.93 221 1.96 138 2.04 179 2.08
  14  0.506  0.008  0.251-  92 1.84 114 1.84 139 1.91 133 1.96 195 2.02 231 2.08
  15  0.493  0.005  0.753- 105 1.81 115 1.85 134 1.92 140 1.96 232 2.03 180 2.05
  16  0.492  0.495  0.258-  69 1.82 106 1.85 229 1.96 222 2.01 181 2.04 135 2.07
  17  0.501  0.504  0.759- 116 1.85  70 1.85 182 1.94 196 1.99 230 2.04 136 2.06
  18  0.995  0.258  0.001- 117 1.83 110 1.86 141 1.96 146 1.96 212 2.01 183 2.02
  19  0.999  0.248  0.491-  74 1.78 213 1.92 202 1.92 184 1.94 223 1.96 142 2.01
  20  0.998  0.758  0.006- 118 1.81  71 1.85 203 1.95 185 1.99 148 2.04 214 2.07
  21  0.996  0.757  0.506- 119 1.83  72 1.84 204 1.95 186 1.98 147 2.02 215 2.04
  22  0.496  0.259  0.002- 120 1.81 109 1.86 150 1.97 143 1.97 187 2.02 216 2.06
  23  0.510  0.241  0.498- 112 1.78  93 1.85 144 1.95 149 1.97 199 2.03 224 2.07
  24  0.508  0.757  0.000-  94 1.83 121 1.83 152 1.94 145 1.98 200 2.03 217 2.06
  25  0.507  0.751  0.509-  73 1.81  95 1.84 225 1.95 218 1.97 201 2.03 151 2.08
  26  1.000  0.259  0.255- 122 1.80  74 1.87 209 1.95 188 1.97 141 2.00 219 2.03
  27  0.007  0.243  0.747- 113 1.80  96 1.84 142 1.96 146 1.97 210 2.04 226 2.05
  28  0.006  0.748  0.243-  71 1.82  97 1.83 220 1.96 227 1.98 147 2.05 211 2.06
  29  0.993  0.750  0.743- 111 1.83  72 1.84 228 1.93 221 1.98 189 2.03 148 2.03
  30  0.507  0.240  0.253- 114 1.82  98 1.83 149 1.95 143 1.95 205 2.03 229 2.05
  31  0.508  0.242  0.749- 115 1.83  99 1.84 150 1.96 144 1.96 206 2.03 230 2.05
  32  0.506  0.751  0.251- 100 1.79 151 1.93 231 1.93 145 1.95 222 1.96 207 2.01
  33  0.502  0.741  0.744-  73 1.83 116 1.83 190 1.93 208 1.97 152 2.04 232 2.04
  34  0.257  0.998  0.005-  75 1.84 101 1.86 246 1.94 233 1.98 171 2.02 157 2.04
  35  0.253  0.994  0.506- 128 1.85  76 1.85 191 1.92 172 1.98 156 2.04 234 2.04
  36  0.241  0.510  0.999- 123 1.80  89 1.82 153 1.95 159 2.00 245 2.06 192 2.07
  37  0.255  0.495  0.507-  77 1.87 102 1.88 127 1.88 158 2.04 235 2.04 173 2.06
  38  0.757  0.000  0.994- 103 1.80  81 1.87 236 1.97 249 1.97 154 2.03 174 2.07
  39  0.748  0.009  0.495- 124 1.83  80 1.85 175 1.93 193 1.97 155 2.01 250 2.08
  40  0.743  0.501  0.005-  90 1.83  78 1.86 237 1.95 247 1.96 194 2.03 161 2.03
  41  0.756  0.498  0.506-  79 1.85 104 1.86 248 1.96 238 1.99 176 2.02 160 2.04
  42  0.245  0.003  0.243-  75 1.84  91 1.85 239 1.94 252 1.97 156 2.03 195 2.05
  43  0.259  0.997  0.744- 105 1.83  76 1.84 253 1.93 240 1.98 177 2.03 157 2.04
  44  0.255  0.492  0.252- 106 1.83 129 1.84 158 1.93 153 1.99 241 2.03 178 2.05
  45  0.245  0.506  0.740-  77 1.78 125 1.83 179 1.95 196 1.99 251 2.03 159 2.14
  46  0.744  0.002  0.256-  80 1.84  92 1.85 256 1.96 242 1.97 197 2.01 154 2.02
  47  0.747  0.007  0.756-  81 1.82 126 1.84 180 1.94 198 1.97 257 2.05 155 2.05
  48  0.755  0.498  0.242-  78 1.83 107 1.85 243 1.95 254 1.96 181 2.03 160 2.05
  49  0.758  0.498  0.742- 108 1.83  79 1.83 255 1.93 244 1.98 161 2.05 182 2.06
  50  0.256  0.251  0.006-  82 1.84 109 1.85 233 1.96 245 1.96 183 2.03 168 2.03
  51  0.254  0.257  0.505- 127 1.81  83 1.85 199 1.95 184 2.02 167 2.03 234 2.06
  52  0.252  0.744  0.994-  86 1.83 123 1.84 200 1.94 185 1.97 162 2.02 246 2.02
  53  0.253  0.756  0.493-  85 1.84 128 1.85 201 1.96 186 1.99 235 2.03 163 2.04
  54  0.757  0.252  0.008- 110 1.81  84 1.85 236 1.94 247 1.96 170 2.04 187 2.04
  55  0.741  0.244  0.498-  93 1.81 124 1.83 169 1.95 164 1.97 248 2.05 202 2.08
  56  0.741  0.749  0.994-  94 1.83  88 1.83 249 1.95 237 1.96 203 2.03 165 2.03
  57  0.742  0.753  0.494-  95 1.82  87 1.86 250 1.94 238 1.98 166 2.01 204 2.05
  58  0.251  0.258  0.244- 129 1.82  82 1.84 205 1.96 188 1.99 167 2.02 239 2.04
  59  0.244  0.251  0.743-  83 1.83  96 1.84 251 1.96 240 1.97 168 2.04 206 2.05
  60  0.243  0.748  0.256-  97 1.83  85 1.83 241 1.95 252 1.98 162 2.04 207 2.06
[...]
 243  0.754  0.624  0.242-  64 1.95  48 1.95
 244  0.736  0.624  0.744-  65 1.98  49 1.98
 245  0.243  0.377  0.995-  50 1.96  36 2.06
 246  0.238  0.874  0.005-  34 1.94  52 2.02
 247  0.741  0.376  0.983-  54 1.96  40 1.96
 248  0.768  0.373  0.487-  41 1.96  55 2.05
 249  0.736  0.875  0.002-  56 1.95  38 1.97
 250  0.772  0.876  0.498-  57 1.94  39 2.08
 251  0.261  0.376  0.756-  59 1.96  45 2.03
 252  0.247  0.875  0.250-  42 1.97  60 1.98
 253  0.251  0.872  0.744-  43 1.93  61 2.03
 254  0.739  0.375  0.268-  62 1.95  48 1.96
 255  0.759  0.374  0.763-  49 1.93  63 2.06
 256  0.746  0.876  0.249-  64 1.95  46 1.96
 257  0.754  0.874  0.750-  65 1.93  47 2.05

IMPORTANT INFORMATION: All symmetrisations will be switched off!
NOSYMM: (Re-)initialisation of all symmetry stuff for point group C_1.

 KPOINTS: Title

Automatic generation of k-mesh.
Space group operators:
 irot       det(A)        alpha          n_x          n_y          n_z        tau_x        tau_y        tau_z
    1     1.000000     0.000001     1.000000     0.000000     0.000000     0.000000     0.000000     0.000000

 Subroutine IBZKPT returns following result:

 Found      4 irreducible k-points:

 Following reciprocal coordinates:
            Coordinates               Weight
  0.250000  0.250000  0.250000      2.000000
 -0.250000  0.250000  0.250000      2.000000
  0.250000 -0.250000  0.250000      2.000000
 -0.250000 -0.250000  0.250000      2.000000

 Following cartesian coordinates:
            Coordinates               Weight
  0.016206  0.016206  0.016206      2.000000
 -0.016206  0.016206  0.016206      2.000000
  0.016206 -0.016206  0.016206      2.000000
 -0.016206 -0.016206  0.016206      2.000000

 SYSTEM =  LTO
 POSCAR =  config 24

 Startparameter for this run:
   NWRITE =      2    write-flag & timer
   PREC   = accura    normal or accurate (medium, high low for compatibility)
   ISTART =      1    job   : 0-new  1-cont  2-samecut
   ICHARG =      0    charge: 1-file 2-atom 10-const
   ISPIN  =      2    spin polarized calculation?
   LNONCOLLINEAR =      F non collinear calculations
   LSORBIT =      F    spin-orbit coupling
   INIWAV =      1    electr: 0-lowe 1-rand  2-diag
   LASPH  =      T    aspherical Exc in radial PAW
   METAGGA=      F    non-selfconsistent MetaGGA calc.

 Electronic Relaxation 1
   ENCUT  =  500.0 eV  36.75 Ry    6.06 a.u.  28.13 28.13 28.13*2*pi/ulx,y,z
   ENINI  =  500.0     initial cutoff
   ENAUG  =  628.9 eV  augmentation charge cutoff
   NELM   =     60;   NELMIN=  2; NELMDL=  0     # of ELM steps
   EDIFF  = 0.1E-05   stopping-criterion for ELM
   LREAL  =      T    real-space projection
   NLSPLINE    = F    spline interpolate recip. space projectors
   LCOMPAT=      F    compatible to vasp.4.4
   GGA_COMPAT  = T    GGA compatible to vasp.4.4-vasp.4.6
   LMAXPAW     = -100 max onsite density
   LMAXMIX     =    4 max onsite mixed and CHGCAR
   VOSKOWN=      0    Vosko Wilk Nusair interpolation
   ROPT   =   -0.00010  -0.00010  -0.00010  -0.00010
 Ionic relaxation
   EDIFFG = -.5E-01   stopping-criterion for IOM
   NSW    =    100    number of steps for IOM
[...]
   0.243E+02 -.878E+01 0.968E+01   -.253E+02 0.894E+01 -.106E+02   0.989E+00 -.168E+00 0.917E+00   -.473E-03 0.982E-03 -.851E-03
   -.668E+01 0.140E+02 0.883E+01   0.769E+01 -.150E+02 -.852E+01   -.103E+01 0.108E+01 -.313E+00   0.974E-04 -.934E-03 0.965E-03
   -.310E+02 0.396E+02 0.188E+02   0.320E+02 -.405E+02 -.187E+02   -.974E+00 0.913E+00 -.113E+00   0.451E-03 -.867E-03 -.108E-02
   -.222E+02 0.306E+01 -.155E+02   0.224E+02 -.299E+01 0.155E+02   -.247E+00 -.597E-01 0.163E-01   0.241E-03 0.983E-03 0.564E-03
   0.125E+02 0.207E+02 0.998E+01   -.121E+02 -.216E+02 -.111E+02   -.366E+00 0.932E+00 0.116E+01   0.441E-03 0.719E-03 -.695E-03
   -.140E+02 -.987E-01 -.803E+01   0.147E+02 -.171E+00 0.890E+01   -.796E+00 0.278E+00 -.875E+00   -.425E-03 -.450E-05 0.603E-03
   0.215E+02 0.247E+02 -.248E+02   -.208E+02 -.254E+02 0.257E+02   -.706E+00 0.765E+00 -.867E+00   -.501E-03 -.123E-03 -.501E-03
   0.546E+02 -.615E+02 -.269E+02   -.556E+02 0.628E+02 0.270E+02   0.953E+00 -.126E+01 -.624E-01   0.488E-03 -.100E-02 0.350E-03
   -.153E+02 0.750E+01 -.576E+01   0.163E+02 -.849E+01 0.712E+01   -.101E+01 0.100E+01 -.138E+01   0.168E-03 0.132E-03 -.292E-03
   -.274E+02 0.107E+02 0.418E+02   0.282E+02 -.106E+02 -.428E+02   -.781E+00 -.417E-01 0.101E+01   0.330E-03 -.214E-03 0.505E-03
   -.165E+01 -.103E+02 0.308E+02   0.113E+01 0.114E+02 -.314E+02   0.531E+00 -.111E+01 0.637E+00   0.655E-03 -.131E-03 -.429E-03
   0.169E+02 -.274E+01 -.234E+02   -.178E+02 0.280E+01 0.242E+02   0.900E+00 -.580E-01 -.817E+00   0.142E-02 0.241E-03 0.101E-03
   -.791E+01 -.162E+02 -.828E+01   0.868E+01 0.161E+02 0.927E+01   -.780E+00 0.186E+00 -.993E+00   -.269E-03 -.222E-04 0.122E-03
   0.364E+02 0.109E+02 0.205E+02   -.373E+02 -.107E+02 -.214E+02   0.907E+00 -.247E+00 0.938E+00   -.541E-03 -.406E-03 0.289E-03
   -.705E+01 -.667E+01 0.126E+02   0.825E+01 0.641E+01 -.134E+02   -.121E+01 0.267E+00 0.806E+00   -.399E-03 0.261E-03 -.313E-03
   -.734E+01 0.123E+02 -.819E+01   0.822E+01 -.134E+02 0.860E+01   -.896E+00 0.115E+01 -.407E+00   0.181E-03 0.453E-03 0.127E-02
   0.306E+02 -.484E+02 0.326E+02   -.310E+02 0.497E+02 -.340E+02   0.414E+00 -.132E+01 0.137E+01   -.219E-03 -.195E-03 -.133E-02
   0.176E+02 0.558E+01 -.271E+02   -.183E+02 -.566E+01 0.278E+02   0.734E+00 0.589E-01 -.663E+00   0.586E-03 -.447E-03 0.387E-03
   -.887E+01 -.220E+02 -.356E+02   0.867E+01 0.232E+02 0.364E+02   0.197E+00 -.125E+01 -.801E+00   0.449E-03 0.191E-03 -.487E-03
   -.162E+02 -.122E+02 0.158E+02   0.171E+02 0.121E+02 -.167E+02   -.863E+00 0.142E+00 0.911E+00   -.159E-03 0.369E-03 0.941E-03
   -.236E+01 -.857E+01 0.182E+02   0.353E+01 0.835E+01 -.192E+02   -.119E+01 0.216E+00 0.104E+01   0.363E-03 -.163E-03 -.946E-03
   0.123E+02 0.495E+02 -.549E+02   -.114E+02 -.493E+02 0.556E+02   -.899E+00 -.187E+00 -.771E+00   0.136E-03 -.124E-02 -.260E-03
   0.112E+02 -.905E+01 -.228E+02   -.106E+02 0.994E+01 0.239E+02   -.583E+00 -.895E+00 -.108E+01   0.265E-03 -.488E-03 -.866E-04
   0.153E+02 0.164E+01 0.833E+01   -.149E+02 -.269E+01 -.922E+01   -.307E+00 0.106E+01 0.892E+00   -.559E-03 0.266E-02 0.501E-03
   0.885E+01 -.177E+02 0.217E+01   -.853E+01 0.185E+02 -.325E+01   -.317E+00 -.817E+00 0.109E+01   -.604E-03 0.523E-03 -.709E-03
   -.286E+02 0.740E+00 -.150E+02   0.294E+02 -.732E+00 0.162E+02   -.745E+00 -.118E-01 -.115E+01   0.215E-03 -.157E-02 -.840E-04
   0.166E+02 0.149E+02 -.116E+02   -.181E+02 -.160E+02 0.115E+02   0.146E+01 0.104E+01 0.113E+00   -.191E-03 -.119E-02 0.167E-03
   0.886E+01 -.912E+01 0.175E+02   -.984E+01 0.900E+01 -.184E+02   0.992E+00 0.111E+00 0.930E+00   0.566E-03 0.146E-02 0.444E-03
   0.494E+01 0.353E+01 0.170E+02   -.587E+01 -.324E+01 -.179E+02   0.944E+00 -.304E+00 0.974E+00   0.779E-03 0.118E-02 -.392E-03
   0.118E+02 -.118E+02 0.227E+02   -.117E+02 0.129E+02 -.235E+02   -.598E-01 -.106E+01 0.852E+00   0.198E-03 -.119E-02 0.986E-03
   0.326E+02 0.366E+02 0.491E+02   -.336E+02 -.364E+02 -.500E+02   0.104E+01 -.183E+00 0.901E+00   -.176E-03 -.779E-03 -.644E-03
   0.237E+02 -.650E+01 -.177E+02   -.248E+02 0.627E+01 0.187E+02   0.112E+01 0.237E+00 -.993E+00   -.478E-03 0.108E-02 0.914E-03
[...]
   0.491E+02 -.207E+01 0.224E+02   -.569E+02 0.215E+01 -.246E+02   0.783E+01 -.880E-01 0.213E+01   0.467E-03 0.563E-03 -.606E-03
   0.775E+02 0.159E+01 -.292E+02   -.820E+02 0.242E+01 0.279E+02   0.443E+01 -.400E+01 0.130E+01   0.100E-03 -.751E-03 -.461E-04
   0.568E+02 0.469E+01 -.143E+02   -.629E+02 -.847E+01 0.160E+02   0.615E+01 0.377E+01 -.167E+01   -.513E-03 0.104E-02 0.640E-03
   0.239E+02 -.137E+01 0.526E+02   -.274E+02 0.148E+01 -.615E+02   0.352E+01 -.109E+00 0.897E+01   0.490E-03 -.105E-02 -.302E-03
   -.515E+02 0.111E+01 0.362E+02   0.577E+02 -.502E+01 -.412E+02   -.618E+01 0.391E+01 0.504E+01   -.414E-03 -.647E-03 0.349E-03
   0.285E+02 -.102E+02 0.127E+00   -.337E+02 0.114E+02 0.296E+01   0.518E+01 -.120E+01 -.310E+01   0.474E-03 0.690E-03 0.561E-03
   -.808E+02 -.169E+02 0.142E+02   0.895E+02 0.225E+02 -.131E+02   -.878E+01 -.557E+01 -.109E+01   0.605E-03 0.811E-03 -.455E-03
   -.355E+01 0.269E+01 0.255E+02   0.801E+01 0.276E+00 -.219E+02   -.447E+01 -.297E+01 -.352E+01   -.439E-04 -.610E-03 -.790E-03
   0.257E+02 0.179E+01 -.122E+01   -.248E+02 -.202E+01 0.125E+01   -.950E+00 0.226E+00 -.400E-01   -.497E-03 0.389E-03 0.354E-03
   0.118E+01 0.104E+02 0.205E+02   -.227E+01 -.151E+02 -.227E+02   0.110E+01 0.467E+01 0.226E+01   -.537E-03 0.502E-03 -.399E-03
   0.323E+02 -.142E+02 -.584E+02   -.362E+02 0.153E+02 0.686E+02   0.392E+01 -.103E+01 -.101E+02   -.246E-03 -.601E-03 0.604E-03
   -.183E+02 0.200E+02 -.411E+02   0.205E+02 -.255E+02 0.470E+02   -.223E+01 0.548E+01 -.594E+01   0.109E-03 -.662E-03 -.720E-03
   0.694E+01 -.135E+01 0.366E+01   -.645E+01 0.201E+01 -.669E+01   -.500E+00 -.665E+00 0.305E+01   0.560E-03 0.996E-03 0.265E-03
   -.216E+02 -.198E+02 -.117E+02   0.219E+02 0.252E+02 0.941E+01   -.269E+00 -.541E+01 0.231E+01   0.561E-03 0.440E-03 -.362E-03
   -.509E+01 0.189E+01 0.636E+01   -.874E-12 0.183E-11 -.650E-12   0.508E+01 -.192E+01 -.635E+01   -.228E-03 -.554E-03 -.462E-03

 POSITION                                       TOTAL-FORCE (eV/Angst)
      5.77537      6.32704     13.93210         0.009546      0.026403     -0.023277
     15.36725     15.34693     15.34021         0.006504      0.013491      0.009826
     15.40518     15.29330      7.61642        -0.000735      0.005491      0.005360
      0.07899      7.65054     15.37091        -0.016708      0.003767      0.007141
     15.33976      7.77139      7.83086         0.023292      0.003278     -0.019357
      7.63459     15.32909      0.00228        -0.000648      0.012132      0.000886
      7.74055      0.07585      7.68608        -0.004367     -0.002799      0.000195
      7.84343      7.67281     15.37829        -0.013474     -0.005313      0.001190
      7.57864      7.66436      7.65850        -0.000329      0.000739     -0.002901
      0.10550      0.05573      3.94387        -0.011410      0.001081     -0.010984
      0.03970      0.10840     11.67678         0.001794     -0.009441     -0.001450
     15.33052      7.60225      3.86439         0.010668      0.013344      0.000831
     15.31889      7.70466     11.42592         0.011709      0.000905      0.012893
      7.80394      0.12742      3.87366        -0.013321     -0.002945     -0.002289
      7.59936      0.07124     11.60882         0.006123     -0.003591     -0.003046
      7.59444      7.63510      3.97959         0.008197      0.012047     -0.017508
      7.73072      7.76971     11.70653        -0.001812      0.003691     -0.012323
     15.35621      3.98065      0.02078         0.000742     -0.011283     -0.007265
     15.40535      3.82595      7.58170         0.003198      0.004060      0.000629
     15.39992     11.69401      0.09442        -0.001403     -0.016901     -0.010524
     15.36854     11.67905      7.80056         0.006823     -0.023276     -0.002122
      7.65129      3.99098      0.02572         0.000999     -0.011098     -0.010642
      7.86024      3.72479      7.67502        -0.013307      0.001478     -0.000753
      7.83165     11.67195      0.00270        -0.014963     -0.004448     -0.003530
      7.82521     11.58807      7.84667        -0.009310     -0.009808     -0.000508
     15.42520      3.98778      3.93808         0.004798     -0.004106     -0.006044
      0.10807      3.74183     11.52671        -0.006196      0.011279      0.008701
      0.09702     11.53585      3.74918        -0.010556     -0.008084      0.004031
     15.31597     11.56584     11.45901         0.013624     -0.003630      0.005563
      7.82148      3.70638      3.90056        -0.015525      0.001872      0.001633
      7.83528      3.73347     11.56114        -0.006948      0.011794     -0.001785
      7.80680     11.58069      3.87581        -0.006935      0.005550     -0.006214
      7.74986     11.43343     11.47794        -0.006839      0.021285     -0.001569
      3.96696     15.39196      0.08302        -0.016625      0.008524     -0.007493
      3.89775     15.33947      7.81161        -0.011626      0.008053     -0.008422
      3.71642      7.87371     15.40741        -0.006477     -0.005973      0.000678
      3.93095      7.63529      7.81367        -0.010923      0.007172     -0.018978
     11.67686      0.00506     15.33332        -0.006576      0.001535      0.002942
     11.54582      0.13374      7.63888         0.008781     -0.029932      0.008409
     11.46783      7.72747      0.07143         0.001471      0.002472     -0.008542
     11.65652      7.68685      7.80905        -0.013743      0.004877     -0.006207
      3.77899      0.04629      3.74994         0.005725     -0.001861      0.011479
      3.99499     15.38717     11.48400        -0.007849      0.000714      0.002225
      3.93437      7.58563      3.88179        -0.009958      0.010758      0.003046
      3.78589      7.80048     11.41527         0.005472      0.006513     -0.012079
     11.47935      0.03479      3.94712        -0.001265     -0.020896     -0.004001
     11.53068      0.10633     11.66061        -0.003361     -0.019876     -0.014497
     11.64971      7.67897      3.73577        -0.000058      0.012276     -0.001459
     11.68577      7.68017     11.44708        -0.014489      0.004327      0.021244
      3.95568      3.87618      0.08976        -0.009082     -0.016395     -0.008187
      3.92244      3.96110      7.78789        -0.006582     -0.004425     -0.020685
      3.89289     11.47170     15.33201        -0.003067      0.020635     -0.001254
      3.89860     11.66424      7.61278        -0.005864     -0.009898      0.001926
     11.68053      3.89344      0.11836        -0.003839     -0.005187     -0.020760
     11.42492      3.76069      7.68772        -0.006175     -0.000019      0.002738
     11.43662     11.54918     15.33985         0.015658     -0.007993     -0.001131
     11.44095     11.62109      7.62576         0.015412     -0.008048      0.004632
      3.86753      3.97780      3.76113         0.005376     -0.020599      0.016492
      3.76888      3.86523     11.45514         0.013477      0.000070      0.003286
      3.75581     11.53181      3.95556         0.006401      0.008282     -0.011219
[...]
     11.63417      9.63348      3.72768         0.009250      0.002397      0.003986
     11.34758      9.62685     11.47179         0.014345     -0.001963      0.001684
      3.74607      5.81530     15.34252        -0.000977      0.007409      0.005109
      3.66997     13.47545      0.07781         0.011164     -0.007071     -0.017739
     11.43664      5.79523     15.15898        -0.000163     -0.000477      0.013540
     11.85212      5.75938      7.51917        -0.028448     -0.006933      0.010414
     11.35496     13.49500      0.03193         0.017478      0.003026     -0.017458
     11.90397     13.50747      7.68261        -0.029768      0.010377     -0.004380
      4.02342      5.79804     11.65793        -0.003109      0.001029     -0.000775
      3.80971     13.50457      3.85084        -0.000156     -0.001776     -0.006673
      3.87076     13.45695     11.47302         0.012533     -0.006654      0.022380
     11.39535      5.77720      4.13922         0.008088      0.003190     -0.019922
     11.70371      5.77393     11.76719        -0.007447     -0.015275     -0.017326
     11.50178     13.50614      3.84363        -0.005221     -0.000784      0.015186
     11.63367     13.48906     11.56930         0.002385      0.009593      0.010935
    total drift:                               -0.009545     -0.027276      0.008181

  FREE ENERGIE OF THE ION-ELECTRON SYSTEM (eV)
  free  energy   TOTEN  =     -1758.44319135 eV

  energy  without entropy=    -1758.44319135  energy(sigma->0) =    -1758.44319135

 stress matrix after NEB project (eV)
    -40.53264     -0.79613      1.25035
     -0.79613    -19.20765      1.94238
      1.24981      1.94246    -35.25366
  FORCES: max atom, RMS     0.044997    0.022392
  FORCE total and by dimension    0.358976    0.043302
  Stress total and by dimension   57.154076   40.532636
 Quasi-Newton relaxation of ions (Broydens 2nd method)
  g(Force)  = 0.622E-02   g(Stress)= 0.000E+00

 Reset! Starting new Quasi-Newton update for ions

 reached required accuracy - stopping structural energy minimisation
 writing wavefunctions

 total charge

[...]

 magnetization (x)

# of ion       s       p       d       tot
    1       -0.000  -0.000   0.000  -0.000
    2        0.000   0.000   0.000   0.000
    3        0.000  -0.000   0.000   0.000
    4        0.000  -0.000  -0.000  -0.000
    5        0.000   0.000   0.000   0.000
    6       -0.000  -0.000   0.000   0.000
    7        0.005   0.006   0.925   0.936
    8        0.000   0.000   0.000   0.000
    9       -0.000  -0.000  -0.000  -0.000
   10        0.000   0.000   0.000   0.000
   11       -0.000  -0.000   0.000   0.000
   12        0.000  -0.000   0.000   0.000
   13        0.000   0.000   0.000   0.000
   14       -0.000  -0.000   0.006   0.006
   15       -0.000  -0.000   0.007   0.007
   16        0.000   0.000  -0.000  -0.000
   17        0.000  -0.000   0.000   0.000
   18        0.000  -0.000   0.000   0.000
   19       -0.000  -0.000  -0.000  -0.000
   20       -0.000   0.000  -0.000  -0.000
   21       -0.000  -0.000  -0.000  -0.000
   22        0.000   0.000   0.000   0.000
   23       -0.000  -0.000  -0.004  -0.004
   24       -0.000  -0.000   0.000   0.000
   25       -0.000  -0.000  -0.000  -0.000
   26        0.000  -0.000   0.000   0.000
   27       -0.000  -0.000  -0.000  -0.000
   28       -0.000   0.000  -0.000  -0.000
   29       -0.000   0.000  -0.000  -0.000
   30       -0.000  -0.000  -0.000  -0.000
   31       -0.000  -0.000  -0.000  -0.000
   32       -0.000  -0.000   0.000   0.000
   33       -0.000  -0.000   0.000   0.000
   34        0.000   0.000   0.000   0.000
   35       -0.000   0.000   0.006   0.006
   36        0.000   0.000   0.000   0.000
   37        0.000  -0.000  -0.000  -0.000
   38       -0.000  -0.000   0.000   0.000
   39       -0.000   0.000   0.006   0.006
   40        0.000   0.000  -0.000   0.000
   41        0.000   0.000  -0.000  -0.000
   42        0.000   0.000   0.000   0.000
   43        0.000   0.000   0.003   0.003
   44        0.000  -0.000   0.000   0.000
   45       -0.000  -0.000  -0.000  -0.000
   46        0.000   0.000   0.003   0.003
   47        0.000  -0.000   0.000   0.000
   48        0.000  -0.000   0.000   0.000
   49        0.000  -0.000   0.000   0.000
   50        0.000  -0.000   0.000   0.000
   51       -0.000  -0.000  -0.000  -0.000
   52        0.000  -0.000  -0.000  -0.000
   53       -0.000  -0.000  -0.000  -0.000
   54        0.000  -0.000   0.000   0.000
   55       -0.000  -0.000  -0.000  -0.000
   56        0.000  -0.000   0.000   0.000
   57       -0.000  -0.000  -0.000  -0.000
   58       -0.000  -0.000   0.000   0.000
   59       -0.000  -0.000   0.000  -0.000
   60       -0.000  -0.000  -0.000  -0.000
[...]
  243       -0.000  -0.000   0.000  -0.000
  244       -0.000  -0.000   0.000  -0.000
  245        0.000  -0.000   0.000  -0.000
  246       -0.000  -0.000   0.000  -0.000
  247       -0.000  -0.000   0.000  -0.000
  248       -0.000  -0.000   0.000  -0.000
  249        0.000  -0.000   0.000  -0.000
  250       -0.000  -0.000   0.000  -0.000
  251        0.000   0.000   0.000   0.000
  252       -0.000  -0.000   0.000  -0.000
  253       -0.000  -0.000   0.000  -0.000
  254       -0.000  -0.000   0.000  -0.000
  255       -0.000  -0.000   0.000  -0.000
  256       -0.000  -0.000   0.000  -0.000
  257       -0.000  -0.000   0.000  -0.000
tot          0.002  -0.014   0.952   0.940