 vasp.5.4.4.18Apr17-6-g9f103f2a35 (build Apr 30 2017 20:10:35) complex

 executed on             LinuxIFC date 2017.10.05  09:51:15

 INCAR:
 POTCAR:   PAW_PBE Ti_pv 07Sep2000
 POTCAR:   PAW_PBE O 08Apr2002
 POTCAR:    PAW_PBE F 08Apr2002
 POTCAR:   PAW_PBE Ti_pv 07Sep2000
   VRHFIN =Ti: d3 s1

   TITEL  = PAW_PBE Ti_pv 07Sep2000
   POMASS =   47.880; ZVAL   =   10.000    mass and valenz
   ENMAX  =  222.338; ENMIN  =  166.753 eV
   QCUT   =   -4.042; QGAM   =    8.085    optimization parameters

   Description
     l     E      TYP  RCUT    TYP  RCUT
     1   .000     23  2.300
     1  -.100     23  2.300
     2   .000     23  2.500
     2   .000     23  2.500
     0   .000     23  2.500
     0  1.500     23  2.500
     3   .000      7   .000

 POTCAR:   PAW_PBE O 08Apr2002
   VRHFIN =O: s2p4

   TITEL  = PAW_PBE O 08Apr2002
   POMASS =   16.000; ZVAL   =    6.000    mass and valenz
   ENMAX  =  400.000; ENMIN  =  300.000 eV
   QCUT   =   -5.520; QGAM   =   11.041    optimization parameters

   Description
     l     E      TYP  RCUT    TYP  RCUT
     0   .000     23  1.200
     0  -.700     23  1.200
     1   .000     23  1.520
     1   .600     23  1.520
     2   .000      7  1.500

 POTCAR:    PAW_PBE F 08Apr2002
   VRHFIN =F: s2p5

   TITEL  = PAW_PBE F 08Apr2002
   POMASS =   18.998; ZVAL   =    7.000    mass and valenz
   ENMAX  =  400.000; ENMIN  =  300.000 eV

 Optimization of the real space projectors (new method)

 maximal supplied QI-value         = 15.12
 optimisation between [QCUT,QGAM] = [ 13.45, 27.06] = [ 50.69,205.06] Ry
 Optimized for a Real-space Cutoff    1.49 Angstroem

   l    n(q)    QCUT    max X(q) W(low)/X(q) W(high)/X(q)  e(spline)
   1     12    13.455     4.841    0.13E-05    0.83E-06    0.56E-07
   1     12    13.455     5.701    0.32E-04    0.25E-04    0.17E-06
   2     11    13.455     4.569    0.64E-05    0.34E-05    0.50E-07
   2     11    13.455    32.276    0.49E-04    0.38E-04    0.46E-06
   0     12    13.455    30.046    0.17E-04    0.41E-05    0.51E-07
   0     12    13.455    45.433    0.12E-04    0.27E-04    0.38E-06
 Optimization of the real space projectors (new method)

[...]

   l    n(q)    QCUT    max X(q) W(low)/X(q) W(high)/X(q)  e(spline)
   0      9    13.368     4.192    0.20E-04    0.58E-05    0.56E-07
   0      9    13.368     8.473    0.60E-04    0.52E-04    0.21E-06
   1      9    13.368     2.474    0.22E-04    0.17E-04    0.28E-07
   1      9    13.368     3.912    0.94E-04    0.97E-04    0.20E-06
 Optimization of the real space projectors (new method)

 maximal supplied QI-value         = 24.76
 optimisation between [QCUT,QGAM] = [ 13.37, 26.98] = [ 50.04,203.89] Ry
 Optimized for a Real-space Cutoff    1.17 Angstroem

   l    n(q)    QCUT    max X(q) W(low)/X(q) W(high)/X(q)  e(spline)
   0      9    13.368    14.049    0.39E-04    0.34E-04    0.16E-06
   0      9    13.368     8.945    0.54E-04    0.47E-04    0.20E-06
   1      9    13.368     7.086    0.99E-04    0.10E-03    0.23E-06
   1      9    13.368     6.747    0.86E-04    0.89E-04    0.21E-06

 PAW_PBE Ti_pv 07Sep2000                :
 PAW_PBE O 08Apr2002                    :
  PAW_PBE F 08Apr2002                   :

 POSCAR: Ti64 O64 F128
  positions in direct lattice
  velocities in cartesian coordinates
 exchange correlation table for  LEXCH =       14
   RHO(1)=    0.500       N(1)  =     2000
   RHO(2)=  100.500       N(2)  =     4000

 VTST: version 3.1, (03/28/14)

 CHAIN: initializing optimizer

 OPT: Using VASP Conjugate-Gradient optimizer
 CHAIN: Read ICHAIN            0

 POSCAR: Ti64 O64 F128
  positions in direct lattice
  velocities in cartesian coordinates

 ion  position               nearest neighbor table
   1  0.001  0.996  0.995- 112 1.83  67 1.83 170 1.95 198 1.97 216 2.01 129 2.03
   2  0.002  0.991  0.504- 113 1.78 130 1.90 171 1.93 199 1.93 135 1.96 217 2.01
   3  0.005  0.498  0.006-  65 1.84 111 1.85 172 1.93 200 1.97 218 2.01 137 2.02
   4  0.009  0.503  0.506-  88 1.81  66 1.83 227 1.96 219 1.98 136 2.01 201 2.02
   5  0.491  0.006  0.004-  94 1.82 106 1.84 131 1.94 138 1.97 229 2.01 173 2.04
   6  0.499  0.992  0.491- 115 1.82  68 1.84 174 1.95 196 1.96 220 2.01 132 2.02
   7  0.492  0.497  0.993-  70 1.80  95 1.84 228 1.96 221 1.98 175 2.03 133 2.04
   8  0.498  0.493  0.492-  69 1.82 114 1.86 197 1.94 176 1.97 134 2.01 222 2.04
   9  0.006  0.012  0.251- 107 1.80  89 1.82 129 1.92 135 2.01 204 2.05 231 2.05
  10  0.995  0.994  0.759-  67 1.81 117 1.84 205 1.94 177 1.96 223 2.00 130 2.10
  11  0.996  0.499  0.244-  65 1.83  98 1.84 230 1.94 224 1.99 178 2.01 136 2.02
  12  0.002  0.496  0.745-  66 1.84 116 1.84 179 1.92 206 1.98 137 2.01 225 2.03
  13  0.495  0.007  0.256-  68 1.82 108 1.83 202 1.94 180 1.99 234 2.02 131 2.04
  14  0.509  0.003  0.748-  90 1.82 109 1.84 132 1.94 138 1.98 235 2.00 203 2.05
  15  0.492  0.496  0.253-  96 1.81  69 1.85 232 1.96 226 1.98 133 2.01 181 2.05
  16  0.495  0.506  0.752-  97 1.85 110 1.87  70 1.88 134 2.02 182 2.04 233 2.05
  17  0.002  0.258  0.006- 111 1.82  71 1.86 183 1.95 209 1.97 146 2.01 216 2.02
  18  0.005  0.246  0.507-  72 1.83  91 1.84 227 1.97 217 1.98 145 2.02 210 2.03
  19  0.995  0.759  0.001- 101 1.84 112 1.84 139 1.96 147 1.98 218 2.00 184 2.02
  20  0.002  0.757  0.493-  73 1.80 113 1.87 185 1.94 211 1.95 219 1.99 140 2.02
  21  0.491  0.244  0.999- 106 1.82  99 1.82 149 1.95 141 1.96 228 2.02 186 2.05
  22  0.506  0.254  0.500- 114 1.82  92 1.85 142 1.95 148 1.97 207 2.02 220 2.05
  23  0.495  0.752  0.992-  75 1.82 100 1.85 229 1.96 221 1.98 187 2.03 143 2.04
  24  0.502  0.753  0.491-  74 1.83 115 1.85 208 1.95 188 1.95 222 2.01 144 2.01
  25  0.995  0.244  0.245-  71 1.82 107 1.85 214 1.95 189 1.99 145 2.01 230 2.02
  26  0.999  0.256  0.744- 116 1.83  72 1.84 190 1.94 215 1.98 146 2.02 223 2.03
  27  0.996  0.755  0.258-  73 1.84 104 1.88 231 1.93 224 1.94 191 1.97 139 2.00
  28  0.991  0.756  0.749- 105 1.83 117 1.84 140 1.96 147 1.97 225 2.00 192 2.03
  29  0.507  0.239  0.247- 108 1.82  93 1.82 148 1.95 141 1.96 232 2.02 212 2.03
  30  0.493  0.241  0.751- 102 1.81 109 1.84 142 1.95 149 1.97 233 2.00 193 2.06
  31  0.495  0.750  0.255- 103 1.84  74 1.84 234 1.95 226 1.96 143 2.00 194 2.05
  32  0.505  0.741  0.753- 110 1.80  75 1.85 195 1.96 213 1.98 144 2.02 235 2.06
  33  0.258  1.000  0.994-  78 1.82  94 1.83 250 1.95 236 1.96 170 2.04 150 2.04
  34  0.250  0.992  0.493- 122 1.83  77 1.84 196 1.95 171 2.00 237 2.01 151 2.02
  35  0.257  0.497  0.009-  76 1.80  95 1.81 238 1.96 249 1.98 172 2.04 158 2.05
  36  0.242  0.493  0.496-  88 1.82 121 1.84 157 1.93 152 1.97 197 2.02 239 2.04
  37  0.748  0.997  0.995- 124 1.83  80 1.84 173 1.95 198 1.98 240 2.01 153 2.04
  38  0.752  0.005  0.494- 118 1.82  79 1.84 174 1.95 199 1.99 154 2.01 252 2.04
  39  0.748  0.497  0.995-  82 1.83 123 1.85 175 1.93 200 1.97 241 2.02 155 2.02
  40  0.754  0.505  0.493-  81 1.82 119 1.86 201 1.93 176 1.96 251 2.02 156 2.03
  41  0.243  0.004  0.257-  89 1.83  77 1.84 242 1.93 253 1.97 150 2.02 202 2.06
  42  0.253  0.994  0.755- 127 1.82  78 1.86 203 1.94 177 1.98 243 2.01 151 2.03
  43  0.253  0.490  0.243-  76 1.85  96 1.86 125 1.87 178 2.03 244 2.04 157 2.05
  44  0.260  0.494  0.752-  97 1.79 126 1.86 158 1.94 152 1.98 245 2.02 179 2.05
  45  0.754  0.008  0.258- 120 1.82  79 1.83 204 1.95 180 1.98 153 2.01 255 2.06
  46  0.743  0.001  0.759-  90 1.82  80 1.83 246 1.93 256 1.97 205 2.05 154 2.05
  47  0.757  0.497  0.255-  98 1.84  81 1.84 254 1.94 155 2.01 181 2.01 247 2.01
  48  0.751  0.492  0.756- 128 1.83  82 1.83 182 1.92 206 1.96 156 2.02 248 2.05
  49  0.258  0.254  0.007-  83 1.81  99 1.84 249 1.95 236 1.96 183 2.03 166 2.04
  50  0.243  0.252  0.498-  91 1.84 121 1.84 165 1.95 159 1.98 207 2.03 237 2.03
  51  0.256  0.750  0.993- 100 1.83  86 1.83 238 1.96 250 1.97 160 2.02 184 2.04
  52  0.247  0.752  0.492-  85 1.83 122 1.85 208 1.95 185 1.98 239 2.00 161 2.01
  53  0.745  0.260  0.994- 123 1.82  87 1.83 186 1.95 209 1.98 240 2.02 162 2.05
  54  0.745  0.243  0.503-  92 1.83 118 1.86 163 1.93 167 1.99 251 2.02 210 2.02
  55  0.755  0.759  0.998- 124 1.84 101 1.84 169 1.94 164 2.00 241 2.00 187 2.02
  56  0.753  0.742  0.508-  84 1.81 119 1.82 188 1.94 211 1.97 252 2.03 168 2.07
  57  0.251  0.260  0.245- 125 1.78  83 1.85 212 1.95 189 1.98 165 2.02 242 2.07
  58  0.258  0.255  0.755- 126 1.81 102 1.84 166 1.95 159 1.98 243 2.03 190 2.04
  59  0.255  0.748  0.255- 103 1.83  85 1.85 244 1.93 253 1.97 160 2.00 191 2.06
  60  0.248  0.754  0.755-  86 1.84 127 1.84 192 1.95 213 1.96 245 2.01 161 2.02
[...]
 242  0.269  0.126  0.236-  41 1.93  57 2.07
 243  0.239  0.124  0.740-  42 2.01  58 2.03
 244  0.257  0.623  0.234-  59 1.93  43 2.04
 245  0.236  0.624  0.738-  60 2.01  44 2.02
 246  0.734  0.127  0.752-  46 1.93  62 2.04
 247  0.759  0.628  0.265-  63 1.94  47 2.01
 248  0.729  0.625  0.758-  64 1.93  48 2.05
 249  0.228  0.375  0.977-  49 1.95  35 1.98
 250  0.227  0.876  0.993-  33 1.95  51 1.97
 251  0.741  0.375  0.515-  54 2.02  40 2.02
 252  0.735  0.874  0.510-  56 2.03  38 2.04
 253  0.234  0.875  0.255-  41 1.97  59 1.97
 254  0.736  0.373  0.232-  47 1.94  61 2.02
 255  0.735  0.877  0.235-  63 1.92  45 2.06
 256  0.770  0.876  0.743-  46 1.97  64 1.97

IMPORTANT INFORMATION: All symmetrisations will be switched off!
NOSYMM: (Re-)initialisation of all symmetry stuff for point group C_1.

 KPOINTS: Title

Automatic generation of k-mesh.
Space group operators:
 irot       det(A)        alpha          n_x          n_y          n_z        tau_x        tau_y        tau_z
    1     1.000000     0.000000     1.000000     0.000000     0.000000     0.000000     0.000000     0.000000

 Subroutine IBZKPT returns following result:

 Found      4 irreducible k-points:

 Following reciprocal coordinates:
            Coordinates               Weight
  0.250000  0.250000  0.250000      2.000000
 -0.250000  0.250000  0.250000      2.000000
  0.250000 -0.250000  0.250000      2.000000
 -0.250000 -0.250000  0.250000      2.000000

 Following cartesian coordinates:
            Coordinates               Weight
  0.016379  0.016379  0.016379      2.000000
 -0.016379  0.016379  0.016379      2.000000
  0.016379 -0.016379  0.016379      2.000000
 -0.016379 -0.016379  0.016379      2.000000

 SYSTEM =  LTO
 POSCAR =  Ti64 O64 F128

 Startparameter for this run:
   NWRITE =      2    write-flag & timer
   PREC   = accura    normal or accurate (medium, high low for compatibility)
   ISTART =      1    job   : 0-new  1-cont  2-samecut
   ICHARG =      0    charge: 1-file 2-atom 10-const
   ISPIN  =      2    spin polarized calculation?
   LNONCOLLINEAR =      F non collinear calculations
   LSORBIT =      F    spin-orbit coupling
   INIWAV =      1    electr: 0-lowe 1-rand  2-diag
   LASPH  =      T    aspherical Exc in radial PAW
   METAGGA=      F    non-selfconsistent MetaGGA calc.

 Electronic Relaxation 1
   ENCUT  =  700.0 eV  51.45 Ry    7.17 a.u.  32.93 32.93 32.93*2*pi/ulx,y,z
   ENINI  =  700.0     initial cutoff
   ENAUG  =  613.6 eV  augmentation charge cutoff
   NELM   =     60;   NELMIN=  2; NELMDL=  0     # of ELM steps
   EDIFF  = 0.1E-05   stopping-criterion for ELM
[...]
   0.608E+01 -.217E+02 -.156E+02   -.714E+01 0.223E+02 0.157E+02   0.106E+01 -.604E+00 -.141E+00   0.844E-03 0.562E-03 0.100E-02
   -.185E+02 -.635E+00 -.557E+01   0.194E+02 -.404E+00 0.539E+01   -.816E+00 0.104E+01 0.177E+00   -.356E-04 0.685E-03 0.753E-03
   0.123E+02 0.108E+02 -.733E+00   -.134E+02 -.117E+02 0.650E+00   0.104E+01 0.891E+00 0.792E-01   -.890E-03 -.207E-02 -.513E-03
   0.299E+02 0.163E+02 -.224E+02   -.308E+02 -.163E+02 0.232E+02   0.898E+00 0.108E-02 -.828E+00   -.176E-02 -.460E-03 -.221E-03
   0.574E+01 0.101E+02 -.282E+02   -.551E+01 -.112E+02 0.291E+02   -.230E+00 0.104E+01 -.964E+00   -.774E-03 0.140E-02 -.425E-03
   -.182E+02 0.114E+02 0.265E+02   0.193E+02 -.117E+02 -.273E+02   -.117E+01 0.291E+00 0.763E+00   0.744E-04 0.661E-04 -.104E-02
   -.750E+01 0.303E+02 0.147E+02   0.783E+01 -.309E+02 -.155E+02   -.333E+00 0.679E+00 0.800E+00   0.134E-02 0.624E-03 0.867E-04
   -.251E+02 -.503E+01 -.156E+02   0.261E+02 0.481E+01 0.167E+02   -.958E+00 0.221E+00 -.114E+01   0.586E-04 -.629E-06 0.148E-02
   0.117E+01 0.420E+02 -.428E+01   -.220E+01 -.426E+02 0.377E+01   0.103E+01 0.647E+00 0.507E+00   0.105E-02 -.134E-02 -.184E-02
   -.197E+01 0.192E+02 0.244E+02   0.189E+01 -.201E+02 -.254E+02   0.798E-01 0.878E+00 0.983E+00   -.887E-04 0.584E-03 -.575E-03
   0.542E+01 -.175E+02 0.309E+01   -.558E+01 0.183E+02 -.414E+01   0.156E+00 -.792E+00 0.104E+01   -.137E-02 0.125E-02 0.125E-02
   -.148E+02 0.216E+02 0.251E+02   0.145E+02 -.225E+02 -.259E+02   0.334E+00 0.845E+00 0.767E+00   -.162E-03 -.364E-03 0.100E-02
   0.182E+02 -.431E+01 0.126E+02   -.179E+02 0.510E+01 -.135E+02   -.390E+00 -.792E+00 0.930E+00   -.336E-03 -.152E-02 -.111E-02
   0.727E+00 0.461E+01 -.164E+02   -.170E+01 -.427E+01 0.173E+02   0.971E+00 -.337E+00 -.984E+00   -.346E-03 -.633E-03 0.941E-03
   -.125E+02 0.207E+02 -.264E+02   0.128E+02 -.214E+02 0.273E+02   -.347E+00 0.704E+00 -.947E+00   0.156E-02 0.130E-02 0.166E-03
   -.165E+02 0.793E+01 0.114E+02   0.173E+02 -.944E+01 -.124E+02   -.779E+00 0.152E+01 0.109E+01   -.256E-03 -.645E-03 -.124E-02
   -.229E+02 0.274E+02 0.110E+02   0.240E+02 -.283E+02 -.107E+02   -.110E+01 0.868E+00 -.309E+00   -.682E-04 -.115E-02 0.173E-02
   0.101E+02 -.160E+02 -.841E+01   -.953E+01 0.171E+02 0.938E+01   -.553E+00 -.104E+01 -.975E+00   0.135E-03 0.133E-03 0.958E-03
   0.116E+02 0.231E+00 -.245E+02   -.126E+02 -.190E+00 0.257E+02   0.104E+01 -.393E-01 -.118E+01   -.238E-02 0.116E-02 -.195E-02
   -.136E+02 -.734E+01 -.168E+02   0.144E+02 0.669E+01 0.175E+02   -.775E+00 0.646E+00 -.732E+00   0.690E-03 -.671E-03 -.113E-02
   -.821E+01 0.141E+02 -.194E+02   0.810E+01 -.153E+02 0.202E+02   0.105E+00 0.123E+01 -.810E+00   -.105E-02 -.950E-03 0.101E-02
   -.189E+02 -.136E+02 -.120E+02   0.199E+02 0.139E+02 0.127E+02   -.105E+01 -.269E+00 -.692E+00   0.114E-02 0.611E-03 0.866E-03
   0.140E+02 -.464E+02 -.192E+02   -.150E+02 0.471E+02 0.189E+02   0.985E+00 -.722E+00 0.273E+00   0.100E-02 -.154E-02 -.929E-04
   -.335E+02 0.483E+01 0.353E+02   0.343E+02 -.479E+01 -.362E+02   -.783E+00 -.504E-01 0.901E+00   -.836E-03 -.823E-04 0.173E-02
   -.734E+01 -.188E+02 0.277E+02   0.745E+01 0.195E+02 -.284E+02   -.105E+00 -.692E+00 0.684E+00   0.325E-03 0.172E-02 -.117E-02
   -.797E+01 -.273E+02 0.286E+02   0.760E+01 0.282E+02 -.296E+02   0.363E+00 -.878E+00 0.985E+00   -.947E-03 0.191E-02 0.855E-04
   0.199E+02 0.312E+01 0.591E+01   -.206E+02 -.413E+01 -.550E+01   0.668E+00 0.101E+01 -.403E+00   -.930E-03 -.293E-03 0.985E-04
   -.186E+02 -.153E+02 0.545E+01   0.192E+02 0.161E+02 -.590E+01   -.691E+00 -.877E+00 0.447E+00   0.125E-02 -.212E-02 0.443E-03
   0.999E+01 0.269E+02 -.482E+01   -.997E+01 -.279E+02 0.612E+01   -.197E-01 0.104E+01 -.130E+01   -.662E-03 0.673E-03 -.563E-03
   0.103E+02 -.160E+02 0.211E+02   -.101E+02 0.172E+02 -.220E+02   -.229E+00 -.122E+01 0.889E+00   0.619E-03 0.259E-02 -.716E-03
   -.153E+02 -.254E+02 0.148E+02   0.165E+02 0.261E+02 -.143E+02   -.117E+01 -.694E+00 -.508E+00   0.251E-02 -.233E-02 0.204E-03
   -.341E+02 0.800E+01 -.282E+02   0.350E+02 -.828E+01 0.290E+02   -.909E+00 0.277E+00 -.785E+00   -.112E-02 -.497E-03 -.111E-02
   -.166E+02 -.182E+02 -.359E+02   0.166E+02 0.191E+02 0.368E+02   0.358E-01 -.810E+00 -.804E+00   0.693E-03 0.197E-02 0.592E-03
[...]
   0.333E+02 -.547E+01 0.354E+02   -.381E+02 0.601E+01 -.399E+02   0.476E+01 -.547E+00 0.459E+01   0.161E-02 -.386E-03 -.192E-03
   -.366E+02 0.249E+02 0.460E+02   0.377E+02 -.299E+02 -.517E+02   -.107E+01 0.505E+01 0.570E+01   -.795E-03 -.112E-02 -.129E-02
   0.309E+02 0.362E+01 0.316E+02   -.363E+02 -.384E+01 -.362E+02   0.542E+01 0.215E+00 0.455E+01   0.811E-03 0.751E-03 0.148E-02
   0.490E+02 -.150E+02 -.102E+02   -.531E+02 0.197E+02 0.835E+01   0.407E+01 -.470E+01 0.182E+01   -.168E-02 0.529E-03 -.152E-02
   -.208E+02 0.357E+02 -.445E+02   0.216E+02 -.393E+02 0.486E+02   -.889E+00 0.356E+01 -.416E+01   0.943E-03 -.109E-02 -.749E-03
   0.800E+02 0.271E+02 -.375E+02   -.891E+02 -.324E+02 0.406E+02   0.909E+01 0.534E+01 -.315E+01   -.475E-03 -.172E-02 0.762E-03
   0.732E+02 -.115E+02 0.784E+02   -.838E+02 0.126E+02 -.897E+02   0.105E+02 -.108E+01 0.113E+02   0.921E-03 0.663E-03 0.115E-02
   0.651E+02 0.111E+02 0.311E+02   -.764E+02 -.122E+02 -.311E+02   0.113E+02 0.108E+01 -.478E-01   -.194E-03 0.927E-04 0.265E-03
   0.436E+02 -.527E+01 -.486E+02   -.460E+02 0.564E+01 0.538E+02   0.250E+01 -.364E+00 -.524E+01   -.714E-03 -.145E-02 -.546E-03
   0.689E+02 -.273E+01 -.387E+02   -.739E+02 0.312E+01 0.418E+02   0.506E+01 -.392E+00 -.305E+01   -.902E-03 0.142E-02 0.203E-03
   0.355E+02 0.110E+02 -.224E+02   -.411E+02 -.116E+02 0.222E+02   0.557E+01 0.626E+00 0.234E+00   -.577E-03 0.417E-03 -.123E-03
   0.500E+02 -.332E+01 0.526E+02   -.555E+02 -.110E+00 -.596E+02   0.556E+01 0.343E+01 0.701E+01   -.143E-03 0.195E-03 -.226E-03
   0.608E+02 -.292E+02 0.599E+02   -.682E+02 0.357E+02 -.668E+02   0.734E+01 -.651E+01 0.694E+01   0.602E-03 0.602E-03 0.117E-02
   -.515E+02 -.261E+01 0.126E+02   0.582E+02 0.284E+01 -.158E+02   -.669E+01 -.225E+00 0.322E+01   -.102E-02 0.707E-03 -.947E-03
   -.497E+01 0.573E+01 -.254E+01   0.419E-12 -.166E-11 0.192E-12   0.497E+01 -.574E+01 0.253E+01   0.716E-04 0.223E-02 0.723E-03

 POSITION                                       TOTAL-FORCE (eV/Angst)
      0.01645     15.19782     15.18339         0.001372     -0.000573      0.001616
      0.03202     15.12458      7.69428         0.004659     -0.000059     -0.001727
      0.07324      7.59547      0.09921        -0.002897     -0.000192      0.005715
      0.13176      7.68088      7.72063         0.000882     -0.003018     -0.005430
      7.48853      0.08704      0.06157         0.000276     -0.000219     -0.004503
      7.61347     15.14162      7.49177         0.004391      0.006270     -0.002199
      7.51159      7.59314     15.15325         0.001380     -0.001765     -0.000920
      7.60154      7.52202      7.50356         0.000834     -0.006408     -0.003813
      0.09190      0.18055      3.83670         0.000816      0.001542      0.000101
     15.19135     15.17938     11.57811         0.002388     -0.001419      0.001748
     15.19963      7.61828      3.72352        -0.000141      0.000261     -0.004566
      0.02830      7.56829     11.36940        -0.000435     -0.000680      0.000233
      7.54931      0.10855      3.90210        -0.002398      0.002852      0.005146
      7.77344      0.04766     11.41729        -0.000269     -0.003315      0.002034
      7.51377      7.57504      3.86885         0.001683     -0.001579      0.002521
      7.55374      7.72300     11.48548         0.000026     -0.005509      0.001643
      0.02346      3.93869      0.09610        -0.000814      0.003546      0.002194
      0.07191      3.75279      7.74133         0.000150     -0.000079      0.000433
     15.18500     11.58757      0.01909         0.003118      0.001100     -0.001563
      0.03427     11.55451      7.52930        -0.003147      0.004240     -0.004904
      7.49477      3.72737     15.25385        -0.000238      0.003956      0.004349
      7.73012      3.87158      7.62823         0.001375      0.003429      0.004503
      7.55695     11.47965     15.13657        -0.001857      0.001753     -0.005202
      7.66240     11.49333      7.49877        -0.004615     -0.000060     -0.004198
     15.19513      3.72465      3.74150         0.001830      0.000068     -0.002278
     15.24842      3.91180     11.35615        -0.000222     -0.003870     -0.001787
     15.20472     11.52503      3.93592         0.007637     -0.001536     -0.001604
     15.12463     11.54233     11.42919         0.005032      0.002084      0.003534
      7.73810      3.65245      3.76564         0.002232      0.006866     -0.004247
      7.52866      3.68184     11.46325        -0.001244      0.004453     -0.005171
      7.55208     11.44494      3.88925        -0.005903     -0.000688      0.000132
      7.70156     11.31541     11.49141         0.000911      0.005961      0.005486
      3.94131     15.25804     15.17449        -0.002881      0.006154     -0.000176
      3.82003     15.13453      7.52701        -0.003661      0.005152      0.000625
      3.91585      7.58249      0.13967        -0.001769      0.004162      0.004293
      3.69241      7.51817      7.56537        -0.000317     -0.000966     -0.002125
     11.41904     15.21179     15.19483        -0.000485      0.003781      0.000605
     11.47201      0.08091      7.53273        -0.004196      0.000163     -0.001699
     11.41751      7.58244     15.19299         0.003394      0.000181      0.000673
     11.50338      7.70697      7.52000        -0.001601     -0.004020     -0.000661
      3.70616      0.05622      3.92345         0.001189     -0.001799      0.000198
      3.86318     15.16608     11.52715        -0.000800     -0.000842     -0.003137
      3.86236      7.48222      3.70660        -0.000192      0.004470     -0.002022
      3.96142      7.54704     11.47307        -0.000890     -0.004663      0.001181
     11.51016      0.12400      3.93747         0.000569      0.002510      0.005912
     11.34464      0.01288     11.57901        -0.000266      0.002938     -0.005513
     11.54887      7.57971      3.89054         0.001712     -0.003447     -0.004347
     11.46316      7.51440     11.53544         0.001382     -0.004306      0.002507
      3.94563      3.87531      0.10352         0.000789     -0.006539     -0.002939
      3.70479      3.84970      7.60398         0.002805     -0.007190     -0.000375
      3.90217     11.45306     15.14985        -0.003282     -0.003836      0.001802
      3.77131     11.48362      7.51724         0.003020      0.003307     -0.002843
     11.37436      3.96636     15.17887        -0.001071      0.004126     -0.003081
     11.37018      3.71025      7.67508        -0.001579     -0.002923      0.000084
     11.52973     11.59249     15.22695         0.002776     -0.005538     -0.003658
     11.49547     11.33120      7.74960         0.004118      0.004238     -0.000757
      3.83475      3.96347      3.73886        -0.001748      0.000645      0.003628
      3.93945      3.88547     11.52600         0.000201     -0.002889     -0.001580
      3.89967     11.41131      3.89371        -0.001607     -0.001000     -0.002930
      3.78455     11.50827     11.52093         0.000587      0.006811      0.002932
[...]
      4.10929      1.91893      3.59864        -0.000403     -0.001772      0.001619
      3.65185      1.89199     11.29137         0.000537     -0.001024      0.002613
      3.92762      9.51319      3.57045        -0.000401     -0.001772      0.002818
      3.59811      9.51977     11.26903         0.000632     -0.001628      0.002675
     11.20676      1.94043     11.48296         0.001765     -0.001816      0.000373
     11.58811      9.58217      4.04431         0.000863      0.001790     -0.000404
     11.13057      9.53973     11.56897         0.002847      0.003018      0.000358
      3.48448      5.71843     14.91245         0.000213      0.000711     -0.000610
      3.46300     13.37141     15.16226         0.000083      0.000876      0.002620
     11.31455      5.72147      7.86176         0.001402      0.002974     -0.002243
     11.22118     13.34195      7.79178         0.000542     -0.003215      0.000193
      3.56834     13.35728      3.89923        -0.000335     -0.002345      0.000786
     11.23468      5.70050      3.54624         0.000096      0.001548      0.001654
     11.21184     13.38018      3.58422        -0.000649     -0.005121      0.000282
     11.74751     13.36738     11.33692         0.001796     -0.000073      0.000550
    total drift:                                0.001866     -0.003896     -0.002521

  FREE ENERGIE OF THE ION-ELECTRON SYSTEM (eV)
  free  energy   TOTEN  =     -1709.55039521 eV

  energy  without entropy=    -1709.55039521  energy(sigma->0) =    -1709.55039521

 stress matrix after NEB project (eV)
      7.01265     -0.13741      0.19435
     -0.13741     -8.76931      4.96668
      0.19435      4.96668     -6.87004
  FORCES: max atom, RMS     0.009808    0.004101
  FORCE total and by dimension    0.065621    0.009502
  Stress total and by dimension   14.923960    8.769309

 reached required accuracy - stopping structural energy minimisation
 writing wavefunctions

 total charge

[...]

 magnetization (x)

# of ion       s       p       d       tot
    1        0.000   0.000  -0.000  -0.000
    2       -0.000  -0.000  -0.000  -0.000
    3        0.000  -0.000   0.000   0.000
    4        0.000   0.000   0.000   0.000
    5        0.000   0.000  -0.000  -0.000
    6        0.000  -0.000  -0.000  -0.000
    7       -0.000  -0.000   0.000   0.000
    8        0.000   0.000   0.000   0.000
    9        0.000   0.000   0.000   0.000
   10        0.000   0.000   0.000   0.000
   11        0.000   0.000   0.000   0.000
   12        0.000   0.000   0.000   0.000
   13        0.000   0.000   0.000   0.000
   14        0.000  -0.000  -0.000  -0.000
   15        0.000   0.000   0.000   0.000
   16        0.000   0.000   0.000   0.000
   17        0.000   0.000   0.000   0.000
   18       -0.000   0.000  -0.000  -0.000
   19        0.000  -0.000   0.000   0.000
   20        0.000  -0.000   0.000   0.000
   21       -0.000   0.000  -0.000  -0.000
   22        0.000   0.000   0.000   0.000
   23       -0.000  -0.000  -0.000  -0.000
   24       -0.000   0.000  -0.000  -0.000
   25        0.000   0.000   0.000   0.000
   26        0.000  -0.000   0.000   0.000
   27       -0.000  -0.000  -0.000  -0.000
   28        0.000  -0.000  -0.000  -0.000
   29        0.000   0.000   0.000   0.000
   30        0.000  -0.000   0.000   0.000
   31        0.000  -0.000  -0.000  -0.000
   32        0.000   0.000   0.000   0.000
   33        0.000  -0.000   0.000   0.000
   34        0.000  -0.000   0.000   0.000
   35        0.000  -0.000   0.000   0.000
   36        0.000   0.000  -0.000  -0.000
   37       -0.000   0.000  -0.000  -0.000
   38        0.000   0.000   0.000   0.000
   39        0.000   0.000  -0.000   0.000
   40       -0.000   0.000  -0.000  -0.000
   41       -0.000  -0.000  -0.000  -0.000
   42        0.000   0.000  -0.000   0.000
   43        0.000  -0.000   0.000   0.000
   44       -0.000   0.000  -0.000  -0.000
   45        0.000   0.000  -0.000  -0.000
   46        0.000  -0.000  -0.000  -0.000
   47       -0.000   0.000  -0.000  -0.000
   48       -0.000  -0.000  -0.000  -0.000
   49       -0.000  -0.000   0.000   0.000
   50        0.000   0.000   0.000   0.000
   51       -0.000   0.000   0.000   0.000
   52        0.000   0.000   0.000   0.000
   53       -0.000  -0.000   0.000  -0.000
   54        0.000  -0.000   0.000   0.000
   55        0.000  -0.000   0.000   0.000
   56       -0.000   0.000  -0.000  -0.000
   57       -0.000  -0.000   0.000   0.000
   58        0.000  -0.000   0.000   0.000
   59       -0.000  -0.000  -0.000  -0.000
   60        0.000  -0.000   0.000   0.000
[...]
  242        0.000   0.000   0.000   0.000
  243        0.000  -0.000   0.000  -0.000
  244        0.000   0.000   0.000   0.000
  245        0.000   0.000   0.000   0.000
  246        0.000  -0.000   0.000   0.000
  247       -0.000   0.000   0.000   0.000
  248        0.000   0.000   0.000   0.000
  249       -0.000   0.000   0.000   0.000
  250       -0.000   0.000   0.000   0.000
  251       -0.000  -0.000   0.000  -0.000
  252        0.000  -0.000   0.000  -0.000
  253       -0.000  -0.000   0.000  -0.000
  254        0.000  -0.000   0.000  -0.000
  255        0.000   0.000   0.000   0.000
  256       -0.000   0.000   0.000   0.000
tot          0.000  -0.000   0.000  -0.000