 vasp.5.4.4.18Apr17-6-g9f103f2a35 (build Apr 30 2017 20:10:35) complex

 executed on             LinuxIFC date 2017.08.02  15:06:17

 INCAR:
 POTCAR:   PAW_PBE Ti_pv 07Sep2000
 POTCAR:   PAW_PBE O 08Apr2002
 POTCAR:    PAW_PBE F 08Apr2002
 POTCAR:   PAW_PBE Ti_pv 07Sep2000
   VRHFIN =Ti: d3 s1

   TITEL  = PAW_PBE Ti_pv 07Sep2000
   POMASS =   47.880; ZVAL   =   10.000    mass and valenz
   ENMAX  =  222.338; ENMIN  =  166.753 eV
   QCUT   =   -4.042; QGAM   =    8.085    optimization parameters

   Description
     l     E      TYP  RCUT    TYP  RCUT
     1   .000     23  2.300
     1  -.100     23  2.300
     2   .000     23  2.500
     2   .000     23  2.500
     0   .000     23  2.500
     0  1.500     23  2.500
     3   .000      7   .000

 POTCAR:   PAW_PBE O 08Apr2002
   VRHFIN =O: s2p4

   TITEL  = PAW_PBE O 08Apr2002
   POMASS =   16.000; ZVAL   =    6.000    mass and valenz
   ENMAX  =  400.000; ENMIN  =  300.000 eV
   QCUT   =   -5.520; QGAM   =   11.041    optimization parameters

   Description
     l     E      TYP  RCUT    TYP  RCUT
     0   .000     23  1.200
     0  -.700     23  1.200
     1   .000     23  1.520
     1   .600     23  1.520
     2   .000      7  1.500

 POTCAR:    PAW_PBE F 08Apr2002
   VRHFIN =F: s2p5

   TITEL  = PAW_PBE F 08Apr2002
   POMASS =   18.998; ZVAL   =    7.000    mass and valenz
   ENMAX  =  400.000; ENMIN  =  300.000 eV

 Optimization of the real space projectors (new method)

 maximal supplied QI-value         = 15.12
 optimisation between [QCUT,QGAM] = [ 13.45, 27.06] = [ 50.69,205.06] Ry
 Optimized for a Real-space Cutoff    1.49 Angstroem

   l    n(q)    QCUT    max X(q) W(low)/X(q) W(high)/X(q)  e(spline)
   1     12    13.455     4.841    0.13E-05    0.83E-06    0.56E-07
   1     12    13.455     5.701    0.32E-04    0.25E-04    0.17E-06
   2     11    13.455     4.569    0.64E-05    0.34E-05    0.50E-07
   2     11    13.455    32.276    0.49E-04    0.38E-04    0.46E-06
   0     12    13.455    30.046    0.17E-04    0.41E-05    0.51E-07
   0     12    13.455    45.433    0.12E-04    0.27E-04    0.38E-06
 Optimization of the real space projectors (new method)

[...]

   l    n(q)    QCUT    max X(q) W(low)/X(q) W(high)/X(q)  e(spline)
   0      9    13.368     4.192    0.20E-04    0.58E-05    0.56E-07
   0      9    13.368     8.473    0.60E-04    0.52E-04    0.21E-06
   1      9    13.368     2.474    0.22E-04    0.17E-04    0.28E-07
   1      9    13.368     3.912    0.94E-04    0.97E-04    0.20E-06
 Optimization of the real space projectors (new method)

 maximal supplied QI-value         = 24.76
 optimisation between [QCUT,QGAM] = [ 13.37, 26.98] = [ 50.04,203.89] Ry
 Optimized for a Real-space Cutoff    1.17 Angstroem

   l    n(q)    QCUT    max X(q) W(low)/X(q) W(high)/X(q)  e(spline)
   0      9    13.368    14.049    0.39E-04    0.34E-04    0.16E-06
   0      9    13.368     8.945    0.54E-04    0.47E-04    0.20E-06
   1      9    13.368     7.086    0.99E-04    0.10E-03    0.23E-06
   1      9    13.368     6.747    0.86E-04    0.89E-04    0.21E-06

 PAW_PBE Ti_pv 07Sep2000                :
 PAW_PBE O 08Apr2002                    :
  PAW_PBE F 08Apr2002                   :

 POSCAR: TiOF2 2x2x2 config 1
  positions in direct lattice
  velocities in cartesian coordinates
 exchange correlation table for  LEXCH =       14
   RHO(1)=    0.500       N(1)  =     2000
   RHO(2)=  100.500       N(2)  =     4000

 VTST: version 3.1, (03/28/14)

 CHAIN: initializing optimizer

 OPT: Using VASP QUASI-newton optimizer
 CHAIN: Read ICHAIN            0

 POSCAR: TiOF2 2x2x2 config 1
  positions in direct lattice
  velocities in cartesian coordinates

 ion  position               nearest neighbor table
   1  1.000  0.000  0.989-  10 1.78  21 1.91  17 1.91  27 1.92  25 1.92  32 1.94
   2  0.000  0.000  0.510-  10 1.80  18 1.90  22 1.90  26 1.92  28 1.93  32 1.94
   3  1.000  0.500  0.000-  11 1.86  12 1.86  19 1.94  23 1.94  27 2.01  25 2.01
   4  1.000  0.500  0.500-  11 1.87  12 1.87  24 1.94  20 1.94  26 2.00  28 2.01
   5  0.500  0.001  0.000-  13 1.83  14 1.84  29 1.95  31 1.96  17 2.05  21 2.05
   6  0.500  0.984  0.500-   9 1.83  13 1.90  14 1.91  18 2.06  22 2.06  30 2.07
   7  0.500  0.500  0.000-  15 1.84  16 1.84  29 1.97  31 1.98  23 2.01  19 2.01
   8  0.500  0.512  0.500-   9 1.88  16 1.89  15 1.89  20 2.02  24 2.02  30 2.07
   9  0.500  0.751  0.500-   6 1.83   8 1.88
  10  1.000  1.000  0.750-   1 1.78   2 1.80
  11  1.000  0.500  0.250-   3 1.86   4 1.87
  12  1.000  0.500  0.751-   3 1.86   4 1.87
  13  0.500  0.002  0.246-   5 1.83   6 1.90
  14  0.500  0.002  0.754-   5 1.84   6 1.91
  15  0.500  0.499  0.247-   7 1.84   8 1.89
  16  0.500  0.499  0.753-   7 1.84   8 1.89
  17  0.241  0.000  0.005-   1 1.91   5 2.05
  18  0.240  0.001  0.495-   2 1.90   6 2.06
  19  0.246  0.500  1.000-   3 1.94   7 2.01
  20  0.245  0.499  0.500-   4 1.94   8 2.02
  21  0.759  0.000  0.005-   1 1.91   5 2.05
  22  0.760  0.001  0.495-   2 1.90   6 2.06
  23  0.754  0.500  1.000-   3 1.94   7 2.01
  24  0.755  0.499  0.500-   4 1.94   8 2.02
  25  1.000  0.245  0.005-   1 1.92   3 2.01
  26  0.000  0.245  0.496-   2 1.92   4 2.00
  27  0.000  0.756  0.005-   1 1.92   3 2.01
  28  0.000  0.755  0.496-   2 1.93   4 2.01
  29  0.500  0.249  1.000-   5 1.95   7 1.97
  30  0.500  0.249  0.500-   8 2.07   6 2.07
  31  0.500  0.751  1.000-   5 1.96   7 1.98
  32  0.000  1.000  0.250-   2 1.94   1 1.94

IMPORTANT INFORMATION: All symmetrisations will be switched off!
NOSYMM: (Re-)initialisation of all symmetry stuff for point group C_1.

 KPOINTS: Title

Automatic generation of k-mesh.
Space group operators:
 irot       det(A)        alpha          n_x          n_y          n_z        tau_x        tau_y        tau_z
    1     1.000000     0.000000     1.000000     0.000000     0.000000     0.000000     0.000000     0.000000

 Subroutine IBZKPT returns following result:

 Found      4 irreducible k-points:

 Following reciprocal coordinates:
            Coordinates               Weight
  0.250000  0.250000  0.250000      2.000000
 -0.250000  0.250000  0.250000      2.000000
  0.250000 -0.250000  0.250000      2.000000
 -0.250000 -0.250000  0.250000      2.000000

 Following cartesian coordinates:
            Coordinates               Weight
  0.031595  0.031831  0.033482      2.000000
 -0.031595  0.031831  0.033482      2.000000
  0.031595 -0.031831  0.033481      2.000000
 -0.031595 -0.031831  0.033481      2.000000

 SYSTEM =  LTO
 POSCAR =  TiOF2 2x2x2 config 1

 Startparameter for this run:
   NWRITE =      2    write-flag & timer
   PREC   = accura    normal or accurate (medium, high low for compatibility)
   ISTART =      1    job   : 0-new  1-cont  2-samecut
   ICHARG =      0    charge: 1-file 2-atom 10-const
   ISPIN  =      2    spin polarized calculation?
   LNONCOLLINEAR =      F non collinear calculations
   LSORBIT =      F    spin-orbit coupling
   INIWAV =      1    electr: 0-lowe 1-rand  2-diag
   LASPH  =      T    aspherical Exc in radial PAW
   METAGGA=      F    non-selfconsistent MetaGGA calc.

 Electronic Relaxation 1
   ENCUT  =  700.0 eV  51.45 Ry    7.17 a.u.  17.07 16.94 16.11*2*pi/ulx,y,z
   ENINI  =  700.0     initial cutoff
   ENAUG  =  613.6 eV  augmentation charge cutoff
   NELM   =     60;   NELMIN=  2; NELMDL=  0     # of ELM steps
   EDIFF  = 0.1E-05   stopping-criterion for ELM
   LREAL  =      T    real-space projection
   NLSPLINE    = F    spline interpolate recip. space projectors
   LCOMPAT=      F    compatible to vasp.4.4
   GGA_COMPAT  = T    GGA compatible to vasp.4.4-vasp.4.6
   LMAXPAW     = -100 max onsite density
   LMAXMIX     =    4 max onsite mixed and CHGCAR
   VOSKOWN=      0    Vosko Wilk Nusair interpolation
   ROPT   =   -0.00010  -0.00010  -0.00010
 Ionic relaxation
   EDIFFG = -.1E-01   stopping-criterion for IOM
   NSW    =    100    number of steps for IOM
   NBLOCK =      1;   KBLOCK =    100    inner block; outer block
   IBRION =      1    ionic relax: 0-MD 1-quasi-New 2-CG
   NFREE  =      0    steps in history (QN), initial steepest desc. (CG)
   ISIF   =      3    stress and relaxation
   IWAVPR =     11    prediction:  0-non 1-charg 2-wave 3-comb
   ISYM   =      0    0-nonsym 1-usesym 2-fastsym
   LCORR  =      T    Harris-Foulkes like correction to forces

   POTIM  = 0.5000    time-step for ionic-motion
   TEIN   =    0.0    initial temperature
   TEBEG  =    0.0;   TEEND  =   0.0 temperature during run
   SMASS  =  -3.00    Nose mass-parameter (am)
   estimated Nose-frequenzy (Omega)   =  0.10E-29 period in steps =****** mass=  -0.143E-26a.u.
   SCALEE = 1.0000    scale energy and forces
   NPACO  =    256;   APACO  = 16.0  distance and # of slots for P.C.
   PSTRESS=    0.0 pullay stress

  Mass of Ions in am
   POMASS =  47.88 16.00 19.00
  Ionic Valenz
   ZVAL   =  10.00  6.00  7.00
  Atomic Wigner-Seitz radii
  virtual crystal weights
   VCA    =   1.00  1.00  1.00
   NELECT =     240.0000    total number of electrons
   NUPDOWN=      -1.0000    fix difference up-down

 DOS related values:
   EMIN   =  10.00;   EMAX   =-10.00  energy-range for DOS
   EFERMI =   0.00
   ISMEAR =     0;   SIGMA  =   0.01  broadening in eV -4-tet -1-fermi 0-gaus

 Electronic relaxation 2 (details)
   IALGO  =     38    algorithm
   LDIAG  =      T    sub-space diagonalisation (order eigenvalues)
   LSUBROT=      F    optimize rotation matrix (better conditioning)
   TURBO    =      0    0=normal 1=particle mesh
   IRESTART =      0    0=no restart 2=restart with 2 vectors
   NREBOOT  =      0    no. of reboots
   NMIN     =      0    reboot dimension
   EREF     =   0.00    reference energy to select bands
   IMIX   =      4    mixing-type and parameters
     AMIX     =   0.40;   BMIX     =  1.00
     AMIX_MAG =   1.60;   BMIX_MAG =  1.00
     AMIN     =   0.10
     WC   =   100.;   INIMIX=   1;  MIXPRE=   1;  MAXMIX= -45

 Intra band minimization:
   WEIMIN = 0.0010     energy-eigenvalue tresh-hold
   EBREAK =  0.16E-08  absolut break condition
   DEPER  =   0.30     relativ break condition

   TIME   =   0.40     timestep for ELM

  volume/ion in A,a.u.               =      14.50        97.86
  Fermi-wavevector in a.u.,A,eV,Ry     =   1.314099  2.483287 23.495299  1.726856
  Thomas-Fermi vector in A             =   2.444375

 Write flags
   LWAVE        =      T    write WAVECAR
   LDOWNSAMPLE  =      F    k-point downsampling of WAVECAR
   LCHARG       =      T    write CHGCAR
   LVTOT        =      F    write LOCPOT, total local potential
   LVHAR        =      F    write LOCPOT, Hartree potential only
   LELF         =      F    write electronic localiz. function (ELF)
   LORBIT       =     11    0 simple, 1 ext, 2 COOP (PROOUT), +10 PAW based schemes

 Dipole corrections
   LMONO  =      F    monopole corrections only (constant potential shift)
   LDIPOL =      F    correct potential (dipole corrections)
   IDIPOL =      0    1-x, 2-y, 3-z, 4-all directions
   EPSILON=  1.0000000 bulk dielectric constant

 LDA+U is selected, type is set to LDAUTYPE =  2
   angular momentum for each species LDAUL =     2   -1   -1
   U (eV)           for each species LDAUU =   4.2  0.0  0.0
[...]
  average eigenvalue of G=   0.7220
 eigenvalue spectrum of G is  0.7220

 real space projection operators:
  max/ min on nodes  :       2237.80       1746.00

[...]

 eigenvalue-minimisations  :  2752
 total energy-change (2. order) :-0.1113554E-04  (-0.3968001E-04)
 number of electron     240.0000002 magnetization      -0.0000000
 augmentation part       61.9401151 magnetization      -0.0000000

[...]

 Broyden mixing:
  rms(total) = 0.38571E-03    rms(broyden)= 0.38563E-03
  rms(prec ) = 0.53131E-03
  weight for this iteration     100.00

 eigenvalues of (default mixing * dielectric matrix)
  average eigenvalue GAMMA=   1.1244
  1.6780  1.0929  0.6024

[...]

--------------------------------------- Iteration      3(   5)  ---------------------------------------

 eigenvalue-minimisations  :  1472
 total energy-change (2. order) : 0.6695336E-07  (-0.7204932E-07)
 number of electron     240.0000002 magnetization       0.0000000
 augmentation part       61.9416680 magnetization      -0.0000000

 Free energy of the ion-electron system (eV)
  alpha Z        PSCENC =       754.43445522
  Ewald energy   TEWEN  =    -12745.32863095
  -Hartree energ DENC   =     -8276.46376051
  -exchange      EXHF   =         0.00000000
  -V(xc)+E(xc)   XCENC  =      1119.46916217
  PAW double counting   =     17991.48866834   -18114.76129149
  entropy T*S    EENTRO =        -0.00000000
  eigenvalues    EBANDS =     -3242.39102008
  atomic energy  EATOM  =     22302.35321627
  Solvation  Ediel_sol  =         0.00000000
  free energy    TOTEN  =      -211.19920102 eV

  energy without entropy =     -211.19920102  energy(sigma->0) =     -211.19920102

 average (electrostatic) potential at core
  the test charge radii are     1.0397  0.7215  0.7167
  (the norm of the test charge is              1.0000)
       1 -60.1320       2 -60.0913       3 -59.1411       4 -59.1242       5 -58.4699
       6 -58.0875       7 -58.2917       8 -58.0320       9 -73.3154      10 -75.3394
      11 -73.8056      12 -73.7991      13 -73.1591      14 -73.1510      15 -72.9644
      16 -72.9640      17 -79.7307      18 -79.5811      19 -79.1308      20 -78.9835
      21 -79.7307      22 -79.5811      23 -79.1308      24 -78.9835      25 -79.9723
      26 -79.9001      27 -79.9717      28 -79.8945      29 -78.9531      30 -77.6142
      31 -78.8813      32 -80.0677

 E-fermi :   0.1379     XC(G=0):  -8.9538     alpha+bet : -7.6131

[...]

 spin component 2

[...]

 k-point     4 :      -0.2500   -0.2500    0.2500
  band No.  band energies     occupation
      1     -36.0944      1.00000
      2     -36.0639      1.00000
      3     -36.0433      1.00000
      4     -36.0307      1.00000
      5     -36.0119      1.00000
      6     -35.9340      1.00000
      7     -35.1895      1.00000
      8     -35.1596      1.00000
      9     -35.1270      1.00000
     10     -35.0950      1.00000
     11     -34.7755      1.00000
     12     -34.7128      1.00000
     13     -34.5746      1.00000
     14     -34.5142      1.00000
     15     -34.3651      1.00000
     16     -34.3329      1.00000
     17     -34.1764      1.00000
     18     -34.0809      1.00000
     19     -34.0750      1.00000
     20     -33.9354      1.00000
     21     -33.8951      1.00000
     22     -33.8655      1.00000
     23     -33.7953      1.00000
     24     -33.7017      1.00000
     25     -23.9143      1.00000
     26     -23.7590      1.00000
     27     -23.6423      1.00000
     28     -23.4881      1.00000
     29     -23.4247      1.00000
     30     -23.3707      1.00000
     31     -23.3168      1.00000
     32     -23.1798      1.00000
     33     -23.0092      1.00000
     34     -22.9306      1.00000
     35     -22.7587      1.00000
     36     -22.7109      1.00000
     37     -22.5975      1.00000
     38     -22.4484      1.00000
     39     -22.3891      1.00000
     40     -21.2525      1.00000
     41     -17.8211      1.00000
     42     -16.6934      1.00000
     43     -16.0925      1.00000
     44     -16.0115      1.00000
     45     -15.9131      1.00000
     46     -15.7161      1.00000
     47     -15.3537      1.00000
     48     -15.1647      1.00000
     49      -7.3486      1.00000
     50      -7.2900      1.00000
     51      -7.2214      1.00000
     52      -7.0123      1.00000
     53      -6.8393      1.00000
     54      -6.4419      1.00000
     55      -6.3408      1.00000
     56      -6.2476      1.00000
     57      -6.1989      1.00000
     58      -6.1363      1.00000
     59      -6.1126      1.00000
     60      -5.9073      1.00000
[...]
    146       4.1496      0.00000
    147       4.2475      0.00000
    148       4.3262      0.00000
    149       4.3928      0.00000
    150       4.5092      0.00000
    151       4.5582      0.00000
    152       4.7838      0.00000
    153       4.9171      0.00000
    154       5.1551      0.00000
    155       5.2207      0.00000
    156       5.3171      0.00000
    157       5.9192      0.00000
    158       6.1171      0.00000
    159       6.5429      0.00000
    160       6.6884      0.00000

[...]

 soft charge-density along one line, spin component           2
         0         1         2         3         4         5         6         7         8         9
 total charge-density along one line

------------------------ aborting loop because EDIFF is reached ----------------------------------------

[...]

  FORCE on cell =-STRESS in cart. coord.  units (eV):
  Direction    XX          YY          ZZ          XY          YZ          ZX
  Alpha Z   754.43446   754.43446   754.43446
  Ewald   -4380.36283 -4311.72760 -4053.29123     0.00005    -1.25250     0.00005
  Hartree  2676.05933  2724.79979  2875.62599     0.00002    -0.57646     0.00003
  E(xc)   -1231.65054 -1231.73897 -1232.42105    -0.00000    -0.00021     0.00000
  Local   -1931.54052 -2063.84734 -2561.79678    -0.00007     1.80119    -0.00008
  n-local  -974.06033  -970.66576  -955.09538     0.00000    -0.01050     0.00000
  augment   743.77463   748.21222   779.36711     0.00000    -0.00164    -0.00000
  Kinetic  4343.34879  4350.53979  4393.21349    -0.00000     0.04033    -0.00000
  Fock        0.00000     0.00000     0.00000     0.00000     0.00000     0.00000
  Total       0.00298     0.00659     0.03661    -0.00000     0.00021    -0.00000
  in kB       0.01029     0.02274     0.12638    -0.00000     0.00074    -0.00001

 VOLUME and BASIS-vectors are now :
  energy-cutoff  :      700.00
  volume of cell :      464.14
      direct lattice vectors                 reciprocal lattice vectors
     7.914155910  0.000000012  0.000000041     0.126355863 -0.000000000 -0.000000001
     0.000000014  7.855128828 -0.000037441    -0.000000000  0.127305360  0.000000829
     0.000000042 -0.000048600  7.466115008    -0.000000001  0.000000638  0.133938467

  length of vectors
     7.914155910  7.855128828  7.466115008     0.126355863  0.127305360  0.133938467

 FORCES acting on ions
    electron-ion (+dipol)            ewald-force                    non-local-force                 convergence-correction
   -.126E-04 -.109E+00 0.270E+02   0.117E-04 0.109E+00 -.275E+02   0.218E-06 0.205E-02 0.421E+00   0.504E-06 -.470E-03 0.115E-03
   0.474E-04 0.895E+00 -.279E+02   -.488E-04 -.887E+00 0.284E+02   -.198E-06 -.655E-02 -.506E+00   0.667E-06 -.661E-03 0.231E-03
   -.906E-06 0.121E+00 0.121E+02   -.477E-06 -.115E+00 -.121E+02   0.476E-07 -.549E-02 -.139E-01   0.667E-06 0.451E-03 -.218E-03
   0.149E-03 -.173E+01 -.126E+02   -.150E-03 0.170E+01 0.126E+02   -.125E-05 0.228E-01 0.111E-01   0.107E-05 0.689E-03 0.405E-03
   0.698E-04 0.392E+01 0.122E+02   -.676E-04 -.391E+01 -.122E+02   -.128E-05 -.311E-02 0.413E-02   -.495E-06 -.548E-03 -.479E-03
   -.900E-04 -.505E+01 -.126E+02   0.895E-04 0.395E+01 0.126E+02   0.123E-05 0.110E+01 0.266E-01   -.656E-06 -.149E-02 0.502E-03
   0.240E-04 -.485E+01 0.302E+01   -.226E-04 0.483E+01 -.302E+01   -.386E-06 0.240E-01 0.775E-04   -.656E-06 0.489E-03 -.166E-03
   -.374E-04 -.981E+00 -.297E+01   0.403E-04 0.212E+01 0.297E+01   0.744E-07 -.115E+01 -.497E-03   -.127E-05 0.165E-02 0.129E-03
   -.428E-04 0.147E+02 -.377E+01   0.447E-04 -.161E+02 0.379E+01   -.127E-05 0.140E+01 -.247E-01   -.540E-06 -.931E-03 0.863E-04
   0.102E-03 0.401E+00 0.528E+01   -.111E-03 -.434E+00 -.571E+01   0.864E-05 0.331E-01 0.441E+00   0.332E-06 -.339E-03 0.167E-04
   0.455E-04 -.452E+00 -.336E+01   -.466E-04 0.461E+00 0.348E+01   0.401E-06 -.790E-02 -.125E+00   0.525E-06 0.242E-03 -.223E-03
   0.718E-05 -.439E+00 0.433E+01   -.667E-05 0.448E+00 -.456E+01   -.102E-05 -.723E-02 0.234E+00   0.509E-06 0.227E-03 -.189E-03
   0.499E-04 -.954E+01 -.324E+02   -.527E-04 0.106E+02 0.339E+02   0.309E-05 -.101E+01 -.158E+01   -.352E-06 -.645E-03 -.564E-03
   -.657E-04 -.934E+01 0.329E+02   0.697E-04 0.103E+02 -.345E+02   -.379E-05 -.990E+00 0.157E+01   -.334E-06 -.572E-03 0.439E-03
   -.139E-04 0.709E+01 -.281E+02   0.151E-04 -.782E+01 0.294E+02   -.524E-06 0.725E+00 -.128E+01   -.573E-06 0.719E-03 -.789E-03
   0.195E-04 0.713E+01 0.281E+02   -.198E-04 -.786E+01 -.294E+02   0.783E-06 0.726E+00 0.127E+01   -.563E-06 0.728E-03 0.723E-03
   -.679E+02 0.887E+00 -.926E-01   0.749E+02 -.964E+00 0.198E+01   -.700E+01 0.796E-01 -.188E+01   0.194E-02 -.546E-03 -.808E-03
   -.863E+02 -.701E+01 -.420E+00   0.947E+02 0.831E+01 -.137E+01   -.843E+01 -.130E+01 0.178E+01   0.956E-03 -.827E-03 0.115E-02
   -.282E+02 -.819E+00 0.427E+01   0.317E+02 0.849E+00 -.430E+01   -.349E+01 -.282E-01 0.322E-01   0.175E-02 0.176E-03 -.318E-03
   -.452E+02 0.618E+01 -.438E+01   0.500E+02 -.733E+01 0.442E+01   -.474E+01 0.115E+01 -.404E-01   0.134E-02 0.141E-02 0.120E-03
   0.679E+02 0.887E+00 -.927E-01   -.749E+02 -.964E+00 0.198E+01   0.700E+01 0.796E-01 -.188E+01   -.194E-02 -.546E-03 -.808E-03
   0.863E+02 -.701E+01 -.420E+00   -.947E+02 0.831E+01 -.137E+01   0.843E+01 -.130E+01 0.178E+01   -.955E-03 -.827E-03 0.115E-02
   0.282E+02 -.819E+00 0.427E+01   -.317E+02 0.849E+00 -.430E+01   0.349E+01 -.282E-01 0.322E-01   -.175E-02 0.176E-03 -.318E-03
   0.452E+02 0.618E+01 -.438E+01   -.500E+02 -.733E+01 0.442E+01   0.474E+01 0.115E+01 -.404E-01   -.133E-02 0.141E-02 0.120E-03
   0.376E-04 -.463E+02 -.647E-01   -.432E-04 0.507E+02 0.194E+01   0.515E-05 -.442E+01 -.187E+01   0.464E-06 0.951E-03 -.766E-03
   -.507E-04 -.456E+02 -.804E+00   0.648E-04 0.499E+02 -.903E+00   -.156E-04 -.433E+01 0.170E+01   0.786E-06 0.334E-03 0.957E-03
   -.283E-04 0.462E+02 -.343E-01   0.294E-04 -.507E+02 0.191E+01   -.167E-05 0.442E+01 -.187E+01   0.465E-06 -.108E-02 -.789E-03
   0.192E-04 0.461E+02 -.917E+00   -.153E-04 -.505E+02 -.771E+00   -.499E-05 0.435E+01 0.168E+01   0.704E-06 -.460E-03 0.942E-03
   -.482E-04 -.622E+01 0.427E+01   0.578E-04 0.708E+01 -.431E+01   -.918E-05 -.861E+00 0.421E-01   -.457E-06 0.633E-03 -.377E-03
   -.215E-04 -.254E+01 -.428E+01   0.223E-04 0.252E+01 0.429E+01   -.313E-06 0.197E-01 -.957E-02   -.733E-06 0.503E-03 0.493E-04
   0.516E-05 0.688E+01 0.428E+01   -.808E-06 -.775E+01 -.432E+01   -.404E-05 0.872E+00 0.444E-01   -.432E-06 -.907E-03 -.338E-03
   -.799E-04 0.397E+00 -.241E+01   0.867E-04 -.431E+00 0.242E+01   -.738E-05 0.347E-01 -.151E-01   0.469E-06 -.410E-03 0.286E-03
   0.243E-04 -.730E+00 0.595E-01   -.534E-13 -.639E-13 0.480E-13   -.259E-04 0.731E+00 -.581E-01   0.163E-05 -.478E-03 0.272E-03

 POSITION                                       TOTAL-FORCE (eV/Angst)
      7.91416      0.00026      7.38619        -0.000000      0.000991     -0.007286
      0.00000      0.00179      3.80545        -0.000001      0.000577     -0.000159
      7.91416      3.92802      0.00197        -0.000001      0.000746      0.000674
      7.91416      3.92653      3.73048        -0.000001     -0.000384     -0.003872
      3.95708      0.00843      0.00289         0.000000      0.003283      0.003133
      3.95708      7.73229      3.73138         0.000000     -0.000275     -0.000851
      3.95708      3.92445      0.00027         0.000000      0.002318      0.000764
      3.95708      4.02486      3.73332         0.000002     -0.007063     -0.000187
      3.95708      5.90262      3.73400         0.000000     -0.003653      0.001430
      7.91416      7.85430      5.60176         0.000000     -0.000517      0.007091
      7.91416      3.92902      1.86358        -0.000000      0.001410     -0.000843
      7.91416      3.92895      5.60377        -0.000000      0.001522      0.001650
      3.95708      0.01753      1.83654        -0.000000      0.000055     -0.000858
      3.95708      0.01731      5.63122        -0.000000     -0.000144      0.001510
      3.95708      3.91607      1.84177         0.000000     -0.000266     -0.001657
      3.95708      3.91594      5.62478        -0.000000     -0.000694      0.003390
      1.90889      0.00027      0.03552        -0.000591      0.001338      0.005179
      1.89840      0.00775      3.69646         0.001203     -0.000668     -0.008184
      1.94485      3.92812      7.46569         0.000334      0.001834      0.000561
      1.93530      3.91803      3.73401        -0.000253     -0.003606      0.001586
      6.00527      0.00027      0.03552         0.000592      0.001338      0.005179
      6.01575      0.00775      3.69646        -0.001202     -0.000668     -0.008184
      5.96931      3.92812      7.46569        -0.000333      0.001834      0.000561
      5.97885      3.91803      3.73401         0.000254     -0.003606      0.001586
      7.91416      1.92104      0.03446        -0.000000      0.000305      0.005059
      0.00000      1.92230      3.70049        -0.000001      0.001446     -0.006168
      0.00000      5.93477      0.03439        -0.000000      0.001209      0.005561
      0.00000      5.93405      3.70068        -0.000000     -0.001592     -0.006252
      3.95708      1.95894      7.46590        -0.000000      0.002519      0.000719
      3.95708      1.95224      3.73389        -0.000000     -0.001203      0.001537
      3.95708      5.90169      7.46582        -0.000000      0.001766      0.000577
      0.00000      7.85421      1.86289        -0.000000     -0.000153     -0.003246
    total drift:                               -0.000000     -0.000373      0.001689

  FREE ENERGIE OF THE ION-ELECTRON SYSTEM (eV)
  free  energy   TOTEN  =      -211.19920102 eV

  energy  without entropy=     -211.19920102  energy(sigma->0) =     -211.19920102

 d Force = 0.2032142E-04[ 0.770E-05, 0.329E-04]  d Energy = 0.2295040E-04-0.263E-05
 d Force =-0.5535738E-01[-0.556E-01,-0.551E-01]  d Ewald  = 0.4072089E+00-0.463E+00

 stress matrix after NEB project (eV)
      0.00298     -0.00000     -0.00000
     -0.00000      0.00659      0.00021
     -0.00000      0.00021      0.03661
  FORCES: max atom, RMS     0.008299    0.004466
  FORCE total and by dimension    0.025264    0.008184
  Stress total and by dimension    0.037321    0.036612
 Quasi-Newton relaxation of ions (Broydens 2nd method)
  g(Force)  = 0.308E-04   g(Stress)= 0.210E-05

 retain information from N=  2 steps
 eigenvalues of (default step * inverse Hessian matrix)
  average eigenvalue of G=   1.0470
 eigenvalue spectrum of G is  0.6997  1.3942

 reached required accuracy - stopping structural energy minimisation
 writing wavefunctions

 total charge

[...]

 magnetization (x)

# of ion       s       p       d       tot
    1       -0.000   0.000   0.000   0.000
    2        0.000  -0.000   0.000  -0.000
    3       -0.000   0.000   0.000   0.000
    4       -0.000  -0.000   0.000   0.000
    5        0.000  -0.000   0.000   0.000
    6        0.000  -0.000  -0.000  -0.000
    7        0.000   0.000   0.000   0.000
    8       -0.000  -0.000   0.000   0.000
    9        0.000   0.000   0.000   0.000
   10       -0.000  -0.000   0.000  -0.000
   11       -0.000  -0.000   0.000  -0.000
   12        0.000  -0.000   0.000   0.000
   13       -0.000  -0.000   0.000  -0.000
   14        0.000  -0.000   0.000  -0.000
   15        0.000   0.000   0.000   0.000
   16        0.000  -0.000   0.000   0.000
   17       -0.000   0.000   0.000  -0.000
   18       -0.000   0.000   0.000  -0.000
   19       -0.000  -0.000   0.000  -0.000
   20        0.000  -0.000   0.000  -0.000
   21       -0.000   0.000   0.000  -0.000
   22       -0.000   0.000   0.000  -0.000
   23        0.000  -0.000   0.000   0.000
   24       -0.000  -0.000   0.000  -0.000
   25       -0.000  -0.000   0.000  -0.000
   26       -0.000  -0.000   0.000  -0.000
   27       -0.000   0.000   0.000  -0.000
   28       -0.000  -0.000   0.000  -0.000
   29       -0.000   0.000   0.000  -0.000
   30        0.000  -0.000   0.000   0.000
   31       -0.000   0.000   0.000   0.000
   32        0.000  -0.000   0.000   0.000
tot          0.000  -0.000   0.000   0.000