 vasp.5.4.4.18Apr17-6-g9f103f2a35 (build Apr 30 2017 20:10:35) complex

 executed on             LinuxIFC date 2017.08.17  14:49:41

 INCAR:
 POTCAR:   PAW_PBE Ti_pv 07Sep2000
 POTCAR:   PAW_PBE O 08Apr2002
 POTCAR:    PAW_PBE F 08Apr2002
 POTCAR:   PAW_PBE Ti_pv 07Sep2000
   VRHFIN =Ti: d3 s1

   TITEL  = PAW_PBE Ti_pv 07Sep2000
   POMASS =   47.880; ZVAL   =   10.000    mass and valenz
   ENMAX  =  222.338; ENMIN  =  166.753 eV
   QCUT   =   -4.042; QGAM   =    8.085    optimization parameters

   Description
     l     E      TYP  RCUT    TYP  RCUT
     1   .000     23  2.300
     1  -.100     23  2.300
     2   .000     23  2.500
     2   .000     23  2.500
     0   .000     23  2.500
     0  1.500     23  2.500
     3   .000      7   .000

 POTCAR:   PAW_PBE O 08Apr2002
   VRHFIN =O: s2p4

   TITEL  = PAW_PBE O 08Apr2002
   POMASS =   16.000; ZVAL   =    6.000    mass and valenz
   ENMAX  =  400.000; ENMIN  =  300.000 eV
   QCUT   =   -5.520; QGAM   =   11.041    optimization parameters

   Description
     l     E      TYP  RCUT    TYP  RCUT
     0   .000     23  1.200
     0  -.700     23  1.200
     1   .000     23  1.520
     1   .600     23  1.520
     2   .000      7  1.500

 POTCAR:    PAW_PBE F 08Apr2002
   VRHFIN =F: s2p5

   TITEL  = PAW_PBE F 08Apr2002
   POMASS =   18.998; ZVAL   =    7.000    mass and valenz
   ENMAX  =  400.000; ENMIN  =  300.000 eV

 Optimization of the real space projectors (new method)

 maximal supplied QI-value         = 15.12
 optimisation between [QCUT,QGAM] = [ 13.45, 27.06] = [ 50.69,205.06] Ry
 Optimized for a Real-space Cutoff    1.49 Angstroem

   l    n(q)    QCUT    max X(q) W(low)/X(q) W(high)/X(q)  e(spline)
   1     12    13.455     4.841    0.13E-05    0.83E-06    0.56E-07
   1     12    13.455     5.701    0.32E-04    0.25E-04    0.17E-06
   2     11    13.455     4.569    0.64E-05    0.34E-05    0.50E-07
   2     11    13.455    32.276    0.49E-04    0.38E-04    0.46E-06
   0     12    13.455    30.046    0.17E-04    0.41E-05    0.51E-07
   0     12    13.455    45.433    0.12E-04    0.27E-04    0.38E-06
 Optimization of the real space projectors (new method)

[...]

   l    n(q)    QCUT    max X(q) W(low)/X(q) W(high)/X(q)  e(spline)
   0      9    13.368     4.192    0.20E-04    0.58E-05    0.56E-07
   0      9    13.368     8.473    0.60E-04    0.52E-04    0.21E-06
   1      9    13.368     2.474    0.22E-04    0.17E-04    0.28E-07
   1      9    13.368     3.912    0.94E-04    0.97E-04    0.20E-06
 Optimization of the real space projectors (new method)

 maximal supplied QI-value         = 24.76
 optimisation between [QCUT,QGAM] = [ 13.37, 26.98] = [ 50.04,203.89] Ry
 Optimized for a Real-space Cutoff    1.17 Angstroem

   l    n(q)    QCUT    max X(q) W(low)/X(q) W(high)/X(q)  e(spline)
   0      9    13.368    14.049    0.39E-04    0.34E-04    0.16E-06
   0      9    13.368     8.945    0.54E-04    0.47E-04    0.20E-06
   1      9    13.368     7.086    0.99E-04    0.10E-03    0.23E-06
   1      9    13.368     6.747    0.86E-04    0.89E-04    0.21E-06

 PAW_PBE Ti_pv 07Sep2000                :
 PAW_PBE O 08Apr2002                    :
  PAW_PBE F 08Apr2002                   :

 POSCAR: Ti64 O64 F128
  positions in direct lattice
  velocities in cartesian coordinates
 exchange correlation table for  LEXCH =       14
   RHO(1)=    0.500       N(1)  =     2000
   RHO(2)=  100.500       N(2)  =     4000

 VTST: version 3.1, (03/28/14)

 CHAIN: initializing optimizer

 OPT: Using VASP QUASI-newton optimizer
 CHAIN: Read ICHAIN            0

 POSCAR: Ti64 O64 F128
  positions in direct lattice
  velocities in cartesian coordinates

 ion  position               nearest neighbor table
   1  0.995  0.995  0.995- 117 1.87  67 1.88 102 1.89 170 2.02 129 2.04 211 2.04
   2  0.000  0.991  0.494- 118 1.81  66 1.82 171 1.94 192 1.95 130 2.01 212 2.09
   3  0.006  0.495  0.998-  88 1.83 116 1.86 137 1.93 131 1.98 193 2.02 213 2.02
   4  0.994  0.502  0.507-  65 1.82 103 1.83 214 1.93 172 2.00 222 2.00 136 2.03
   5  0.494  0.995  0.999- 100 1.83 120 1.85 139 1.95 132 1.96 215 2.02 173 2.03
   6  0.500  0.008  0.500- 111 1.77 190 1.90 133 1.91 138 1.91 174 1.93 224 2.02
   7  0.504  0.496  0.996-  69 1.87  89 1.88 119 1.88 191 2.02 134 2.03 216 2.05
   8  0.492  0.499  0.495- 101 1.80  68 1.85 223 1.97 217 1.98 135 2.01 175 2.05
   9  0.007  0.003  0.256-  90 1.83  66 1.86 218 1.94 226 1.97 129 1.99 196 2.05
  10  0.001  0.008  0.757-  67 1.79 112 1.84 176 1.94 197 1.98 227 2.05 130 2.06
  11  0.994  0.494  0.252- 106 1.82 121 1.86 136 1.93 131 1.96 219 2.01 177 2.02
  12  0.993  0.499  0.742- 107 1.82  65 1.82 225 1.93 220 1.97 137 2.01 178 2.03
  13  0.506  0.008  0.250- 113 1.82  91 1.84 132 1.92 138 1.97 194 2.00 230 2.05
  14  0.493  0.005  0.751- 104 1.80 114 1.84 139 1.93 133 1.99 231 2.02 179 2.03
  15  0.493  0.497  0.257-  68 1.82 105 1.84 228 1.96 221 2.00 134 2.01 180 2.04
  16  0.501  0.505  0.758-  69 1.80 115 1.88 181 1.94 195 1.96 229 2.04 135 2.06
  17  0.995  0.257  0.001- 116 1.82 109 1.87 140 1.96 145 1.96 182 2.00 211 2.02
  18  0.999  0.248  0.491-  73 1.77 212 1.91 183 1.93 201 1.93 222 1.95 141 2.01
  19  0.998  0.758  0.006- 117 1.81  70 1.85 202 1.94 184 1.97 147 2.04 213 2.06
  20  0.998  0.757  0.506-  71 1.83 118 1.83 203 1.94 185 1.95 146 2.02 214 2.03
  21  0.495  0.258  0.000- 119 1.80 108 1.84 149 1.95 142 1.97 186 2.03 215 2.08
  22  0.508  0.245  0.500-  92 1.80 111 1.90 143 1.92 148 1.93 223 1.97 198 1.99
  23  0.507  0.757  0.999-  93 1.82 120 1.84 151 1.93 144 1.98 199 2.01 216 2.02
  24  0.507  0.753  0.509-  72 1.79  94 1.83 217 1.96 224 1.96 200 2.00 150 2.06
  25  0.999  0.258  0.255- 121 1.79  73 1.88 208 1.94 187 1.95 140 1.98 218 2.03
  26  0.006  0.242  0.747- 112 1.81  95 1.83 141 1.96 145 1.96 209 2.05 225 2.05
  27  0.007  0.749  0.243-  70 1.81  96 1.83 219 1.95 226 1.98 146 2.04 210 2.05
  28  0.993  0.751  0.744- 110 1.82  71 1.84 227 1.93 220 1.98 188 2.01 147 2.02
  29  0.508  0.242  0.251-  97 1.81 113 1.82 142 1.92 148 1.96 228 2.01 204 2.01
  30  0.507  0.243  0.750-  98 1.84 114 1.85 149 1.92 143 1.97 205 2.02 229 2.02
  31  0.507  0.752  0.252-  99 1.79 150 1.92 230 1.93 144 1.93 221 1.94 206 2.00
  32  0.502  0.742  0.743- 115 1.81  72 1.84 189 1.93 207 1.96 151 2.01 231 2.07
  33  0.256  0.999  0.006-  74 1.84 100 1.86 245 1.93 232 1.97 170 2.01 156 2.04
  34  0.249  0.994  0.507- 127 1.83  75 1.84 171 1.94 190 1.98 155 2.02 233 2.03
  35  0.244  0.508  0.998- 122 1.82  88 1.84 158 1.93 152 1.97 191 2.01 244 2.04
  36  0.254  0.494  0.506-  76 1.85 101 1.87 126 1.88 172 2.03 157 2.04 234 2.05
  37  0.757  0.000  0.994- 102 1.79  80 1.87 235 1.96 248 1.96 173 2.04 153 2.04
  38  0.751  0.007  0.494-  79 1.83 123 1.84 192 1.92 174 1.98 154 1.99 249 2.03
  39  0.742  0.501  0.005-  89 1.80  77 1.87 236 1.95 246 1.96 160 2.02 193 2.05
  40  0.756  0.498  0.505-  78 1.84 103 1.85 247 1.95 237 1.98 175 2.01 159 2.02
  41  0.245  0.002  0.244-  74 1.83  90 1.84 238 1.94 251 1.97 155 2.03 194 2.05
  42  0.257  0.998  0.744-  75 1.84 104 1.84 252 1.93 239 1.97 176 2.01 156 2.02
  43  0.255  0.492  0.252- 128 1.83 105 1.83 157 1.93 152 1.96 177 2.03 240 2.04
  44  0.247  0.507  0.741-  76 1.79 124 1.83 178 1.94 195 1.97 250 2.03 158 2.05
  45  0.745  1.000  0.256-  91 1.85  79 1.86 255 1.95 241 1.96 153 1.99 196 1.99
  46  0.748  0.006  0.756-  80 1.81 125 1.84 179 1.94 197 1.96 256 2.04 154 2.06
  47  0.756  0.500  0.243-  77 1.81 106 1.85 242 1.95 253 1.96 180 2.02 159 2.04
  48  0.757  0.498  0.743- 107 1.82  78 1.83 254 1.94 243 1.98 181 2.02 160 2.03
  49  0.257  0.251  0.006- 108 1.83  81 1.85 244 1.94 232 1.97 167 2.01 182 2.04
  50  0.253  0.257  0.506- 126 1.81  82 1.85 198 1.95 183 2.00 166 2.03 233 2.06
  51  0.252  0.742  0.993- 122 1.82  85 1.83 199 1.94 184 1.96 161 2.03 245 2.04
  52  0.251  0.756  0.493-  84 1.83 127 1.86 200 1.94 185 1.96 234 2.00 162 2.04
  53  0.757  0.250  0.007- 109 1.80  83 1.85 235 1.94 246 1.94 169 2.02 186 2.03
  54  0.743  0.242  0.498- 123 1.82  92 1.84 168 1.92 163 1.95 247 2.02 201 2.02
  55  0.742  0.750  0.994-  93 1.82  87 1.83 236 1.94 248 1.95 202 2.01 164 2.04
  56  0.742  0.752  0.494-  94 1.81  86 1.86 249 1.94 237 1.96 165 2.01 203 2.02
  57  0.251  0.258  0.244- 128 1.82  81 1.82 204 1.95 187 1.98 166 2.03 238 2.04
  58  0.244  0.251  0.744-  82 1.83  95 1.84 250 1.94 239 1.98 167 2.03 205 2.04
  59  0.244  0.748  0.256-  96 1.83  84 1.84 240 1.94 251 1.98 161 2.02 206 2.05
  60  0.248  0.742  0.757- 124 1.81  85 1.83 188 1.93 207 1.97 162 2.03 252 2.05
[...]
 242  0.746  0.625  0.250-  63 1.94  47 1.95
 243  0.742  0.625  0.750-  64 1.97  48 1.98
 244  0.251  0.376  0.999-  49 1.94  35 2.04
 245  0.248  0.874  0.003-  33 1.93  51 2.04
 246  0.750  0.375  0.992-  53 1.94  39 1.96
 247  0.751  0.372  0.493-  40 1.95  54 2.02
 248  0.748  0.875  0.010-  55 1.95  37 1.96
 249  0.756  0.876  0.505-  56 1.94  38 2.03
 250  0.252  0.376  0.755-  58 1.94  44 2.03
 251  0.256  0.876  0.250-  41 1.97  59 1.98
 252  0.246  0.874  0.746-  42 1.93  60 2.05
 253  0.750  0.374  0.260-  61 1.94  47 1.96
 254  0.753  0.374  0.755-  48 1.94  62 2.05
 255  0.756  0.875  0.241-  45 1.95  63 1.95
 256  0.749  0.875  0.743-  64 1.93  46 2.04

IMPORTANT INFORMATION: All symmetrisations will be switched off!
NOSYMM: (Re-)initialisation of all symmetry stuff for point group C_1.

 KPOINTS: Title

Automatic generation of k-mesh.
Space group operators:
 irot       det(A)        alpha          n_x          n_y          n_z        tau_x        tau_y        tau_z
    1     1.000000     0.000000     1.000000     0.000000     0.000000     0.000000     0.000000     0.000000

 Subroutine IBZKPT returns following result:

 Found      4 irreducible k-points:

 Following reciprocal coordinates:
            Coordinates               Weight
  0.250000  0.250000  0.250000      2.000000
 -0.250000  0.250000  0.250000      2.000000
  0.250000 -0.250000  0.250000      2.000000
 -0.250000 -0.250000  0.250000      2.000000

 Following cartesian coordinates:
            Coordinates               Weight
  0.016227  0.016157  0.016224      2.000000
 -0.016228  0.016152  0.016230      2.000000
  0.016222 -0.016162  0.016234      2.000000
 -0.016232 -0.016166  0.016240      2.000000

 SYSTEM =  LTO
 POSCAR =  Ti64 O64 F128

 Startparameter for this run:
   NWRITE =      2    write-flag & timer
   PREC   = accura    normal or accurate (medium, high low for compatibility)
   ISTART =      1    job   : 0-new  1-cont  2-samecut
   ICHARG =      0    charge: 1-file 2-atom 10-const
   ISPIN  =      2    spin polarized calculation?
   LNONCOLLINEAR =      F non collinear calculations
   LSORBIT =      F    spin-orbit coupling
   INIWAV =      1    electr: 0-lowe 1-rand  2-diag
   LASPH  =      T    aspherical Exc in radial PAW
   METAGGA=      F    non-selfconsistent MetaGGA calc.

 Electronic Relaxation 1
   ENCUT  =  700.0 eV  51.45 Ry    7.17 a.u.  33.24 33.38 33.23*2*pi/ulx,y,z
   ENINI  =  700.0     initial cutoff
   ENAUG  =  613.6 eV  augmentation charge cutoff
   NELM   =     60;   NELMIN=  2; NELMDL=  0     # of ELM steps
   EDIFF  = 0.1E-05   stopping-criterion for ELM
[...]
   -.527E+01 0.684E+01 0.178E+02   0.623E+01 -.781E+01 -.179E+02   -.961E+00 0.972E+00 0.101E+00   0.761E-03 -.189E-02 0.143E-02
   -.105E+02 0.532E+01 -.101E+02   0.113E+02 -.620E+01 0.103E+02   -.814E+00 0.879E+00 -.194E+00   0.672E-03 -.180E-02 -.136E-02
   -.237E+02 0.140E+02 0.198E+01   0.239E+02 -.140E+02 -.192E+01   -.197E+00 -.570E-01 -.595E-01   0.119E-02 0.166E-02 0.340E-02
   0.142E+02 0.329E+02 -.264E+01   -.140E+02 -.338E+02 0.134E+01   -.241E+00 0.861E+00 0.130E+01   0.209E-02 0.186E-02 -.390E-02
   -.162E+02 -.325E+01 -.123E+02   0.170E+02 0.309E+01 0.132E+02   -.802E+00 0.157E+00 -.891E+00   -.103E-02 0.269E-02 0.246E-02
   0.214E+02 0.288E+02 -.223E+02   -.217E+02 -.295E+02 0.232E+02   0.244E+00 0.722E+00 -.901E+00   0.178E-02 0.392E-03 -.290E-02
   0.173E+02 -.153E+02 0.351E+01   -.181E+02 0.164E+02 -.372E+01   0.793E+00 -.111E+01 0.201E+00   -.526E-02 -.215E-02 0.891E-03
   -.275E+02 0.185E+02 -.102E+02   0.285E+02 -.196E+02 0.115E+02   -.972E+00 0.112E+01 -.132E+01   -.100E-02 0.616E-03 -.194E-02
   -.246E+02 0.115E+02 0.382E+02   0.253E+02 -.114E+02 -.393E+02   -.739E+00 -.841E-01 0.110E+01   0.849E-03 0.921E-03 0.878E-03
   0.287E+01 -.259E+02 0.377E+02   -.242E+01 0.268E+02 -.382E+02   -.452E+00 -.951E+00 0.528E+00   -.190E-02 -.663E-03 -.111E-02
   0.165E+02 0.420E+01 -.223E+02   -.172E+02 -.413E+01 0.233E+02   0.744E+00 -.636E-01 -.103E+01   0.404E-02 -.936E-03 0.191E-02
   -.161E+02 -.150E+02 -.188E+02   0.169E+02 0.148E+02 0.196E+02   -.782E+00 0.222E+00 -.805E+00   0.158E-02 0.676E-03 -.852E-03
   0.414E+02 0.895E+01 0.299E+02   -.424E+02 -.871E+01 -.308E+02   0.100E+01 -.244E+00 0.929E+00   0.821E-03 0.810E-03 -.934E-03
   -.139E+02 -.873E+01 0.255E+01   0.149E+02 0.846E+01 -.336E+01   -.102E+01 0.271E+00 0.810E+00   0.278E-03 0.173E-02 0.129E-02
   -.168E+02 0.181E+02 -.193E+01   0.178E+02 -.192E+02 0.219E+01   -.911E+00 0.112E+01 -.254E+00   -.171E-02 -.975E-03 0.545E-03
   -.243E+01 -.278E+02 0.975E+01   0.226E+01 0.290E+02 -.108E+02   0.175E+00 -.118E+01 0.107E+01   -.421E-02 -.263E-02 0.340E-03
   0.191E+02 0.836E+01 -.219E+02   -.197E+02 -.840E+01 0.225E+02   0.580E+00 0.421E-01 -.630E+00   -.152E-02 -.280E-03 0.146E-02
   -.191E+02 -.286E+02 -.488E+02   0.189E+02 0.297E+02 0.497E+02   0.177E+00 -.112E+01 -.878E+00   -.361E-04 0.194E-03 -.110E-02
   -.163E+02 -.103E+02 0.253E+02   0.172E+02 0.102E+02 -.260E+02   -.961E+00 0.662E-01 0.766E+00   0.128E-02 0.258E-03 0.214E-02
   -.768E+01 -.950E+01 0.128E+02   0.871E+01 0.927E+01 -.136E+02   -.103E+01 0.227E+00 0.858E+00   0.436E-02 -.597E-03 -.325E-02
   -.100E+02 0.392E+01 -.223E+02   0.110E+02 -.368E+01 0.231E+02   -.964E+00 -.235E+00 -.878E+00   -.253E-02 -.168E-02 0.484E-03
   0.150E+02 -.251E+02 -.260E+02   -.145E+02 0.261E+02 0.270E+02   -.465E+00 -.940E+00 -.103E+01   0.983E-03 -.843E-03 -.957E-03
   0.114E+02 0.121E+02 0.970E+01   -.112E+02 -.133E+02 -.107E+02   -.171E+00 0.113E+01 0.104E+01   -.384E-02 0.911E-03 0.268E-02
   0.837E+01 -.171E+02 0.299E+00   -.827E+01 0.179E+02 -.123E+01   -.101E+00 -.752E+00 0.936E+00   -.392E-03 -.350E-03 -.228E-02
   -.257E+02 -.883E+01 -.194E+02   0.263E+02 0.881E+01 0.206E+02   -.622E+00 0.226E-01 -.113E+01   0.236E-02 -.160E-05 0.170E-02
   0.303E+02 0.183E+02 -.122E+02   -.313E+02 -.191E+02 0.120E+02   0.106E+01 0.807E+00 0.177E+00   -.678E-03 0.318E-03 -.111E-02
   0.180E+02 -.330E+01 0.203E+02   -.190E+02 0.320E+01 -.212E+02   0.944E+00 0.104E+00 0.945E+00   0.386E-02 0.329E-03 0.199E-02
   0.601E+01 0.206E+02 0.174E+02   -.695E+01 -.204E+02 -.183E+02   0.934E+00 -.224E+00 0.897E+00   0.508E-03 -.489E-03 -.974E-03
   0.359E+01 -.249E+02 0.299E+02   -.351E+01 0.261E+02 -.308E+02   -.868E-01 -.115E+01 0.896E+00   -.162E-03 -.137E-02 -.704E-03
   0.117E+02 0.670E+01 0.160E+02   -.127E+02 -.639E+01 -.169E+02   0.104E+01 -.314E+00 0.893E+00   -.121E-02 0.184E-03 0.151E-02
   0.227E+02 0.981E-01 -.556E+01   -.238E+02 -.328E+00 0.652E+01   0.110E+01 0.229E+00 -.957E+00   -.112E-02 0.140E-02 0.979E-03
   -.875E+01 0.250E+02 -.884E+01   0.846E+01 -.261E+02 0.991E+01   0.288E+00 0.108E+01 -.107E+01   -.319E-02 0.811E-03 -.138E-02
[...]
   0.293E+02 0.516E+01 -.224E+01   -.347E+02 -.563E+01 0.216E+01   0.537E+01 0.473E+00 0.810E-01   0.325E-02 -.195E-03 -.213E-02
   0.183E+01 -.128E+02 0.356E+00   -.215E+01 0.176E+02 -.160E+01   0.316E+00 -.484E+01 0.125E+01   -.294E-02 -.260E-02 0.461E-03
   0.191E+02 0.129E+02 -.813E+01   -.213E+02 -.179E+02 0.898E+01   0.213E+01 0.499E+01 -.851E+00   -.156E-02 0.220E-02 0.206E-02
   0.147E+01 -.120E+02 0.243E+02   -.154E+01 0.129E+02 -.297E+02   0.627E-01 -.916E+00 0.541E+01   0.286E-02 -.155E-02 0.106E-02
   0.455E+01 -.118E+02 0.159E+02   -.454E+01 0.907E+01 -.191E+02   -.898E-02 0.270E+01 0.317E+01   0.334E-03 -.261E-03 -.104E-02
   -.358E+01 -.493E+01 -.225E+02   0.312E+01 0.549E+01 0.285E+02   0.457E+00 -.561E+00 -.596E+01   0.154E-02 0.106E-02 0.123E-02
   -.330E+02 0.167E+01 -.944E+01   0.366E+02 0.185E+01 0.134E+02   -.357E+01 -.352E+01 -.396E+01   -.611E-03 -.723E-03 -.102E-02
   -.106E+02 -.107E+02 -.136E+02   0.129E+02 0.152E+02 0.177E+02   -.231E+01 -.447E+01 -.410E+01   -.228E-02 -.270E-03 0.547E-03
   0.167E+01 0.453E+01 0.431E+01   0.238E+01 -.502E+01 -.403E+01   -.405E+01 0.493E+00 -.272E+00   0.109E-04 0.682E-03 0.176E-03
   0.164E+02 0.196E+02 0.700E+01   -.190E+02 -.250E+02 -.822E+01   0.257E+01 0.542E+01 0.122E+01   -.841E-03 0.568E-03 -.125E-03
   -.124E+01 -.188E+02 -.220E+02   0.161E+01 0.201E+02 0.289E+02   -.372E+00 -.138E+01 -.687E+01   0.758E-03 0.136E-02 0.984E-03
   0.212E+01 0.108E+02 -.246E+02   -.184E+01 -.158E+02 0.277E+02   -.287E+00 0.493E+01 -.304E+01   0.235E-02 -.425E-03 -.123E-02
   -.226E+02 0.417E+01 0.329E+02   0.270E+02 -.429E+01 -.389E+02   -.436E+01 0.117E+00 0.598E+01   0.312E-05 -.117E-02 0.147E-02
   -.582E+01 -.982E+01 0.401E+01   0.429E+01 0.146E+02 -.877E+01   0.153E+01 -.478E+01 0.476E+01   0.773E-03 0.151E-03 -.156E-02
   0.604E+00 -.440E+01 0.295E+01   -.546E-12 -.774E-12 0.146E-12   -.608E+00 0.440E+01 -.296E+01   0.374E-03 0.156E-03 -.268E-03

 POSITION                                       TOTAL-FORCE (eV/Angst)
     15.32906     15.40123     15.32787        -0.000038      0.000695     -0.000017
     -0.00035     15.34105      7.60581        -0.000208      0.000730     -0.001477
      0.08838      7.66118     15.37394        -0.000478      0.001433     -0.000720
     15.31149      7.76983      7.81296        -0.000771      0.000394     -0.000043
      7.61116     15.39033     15.39517         0.000507      0.000851      0.000640
      7.70846      0.13154      7.70676         0.001187     -0.001332      0.000353
      7.76985      7.67030     15.33996        -0.000332      0.000325     -0.000029
      7.58303      7.72750      7.62640        -0.000375     -0.000383      0.000992
      0.10282      0.03993      3.94677         0.000149      0.001292     -0.000314
      0.01706      0.12289     11.65545        -0.000184      0.001028     -0.000455
     15.30646      7.63923      3.88467        -0.001067      0.000306     -0.000304
     15.29280      7.71703     11.44033        -0.000298      0.000145     -0.000962
      7.80186      0.12483      3.85337         0.000322      0.000317      0.001245
      7.58994      0.08571     11.57334         0.000627     -0.001706      0.001207
      7.59814      7.69608      3.96617        -0.000129     -0.000934      0.001566
      7.71938      7.81395     11.67691        -0.000928     -0.001314     -0.001258
     15.33175      3.97701      0.02024         0.000789      0.001670      0.000244
     15.38943      3.83442      7.57378         0.000122      0.000600     -0.000503
     15.37340     11.72716      0.10110        -0.000354      0.000709      0.000349
     15.37939     11.70600      7.80035        -0.000810      0.000212     -0.000709
      7.61956      3.99327      0.00413         0.000877     -0.000388      0.001246
      7.82497      3.79844      7.70381         0.001133      0.000079     -0.000355
      7.81401     11.71576     15.38815         0.000460      0.000968      0.000565
      7.80742     11.65051      7.84298        -0.000615      0.000179     -0.000034
     15.39806      3.99401      3.93536         0.001313      0.000498     -0.000291
      0.09807      3.74766     11.50947         0.000353      0.000539     -0.000626
      0.10563     11.58279      3.74918        -0.000814      0.000372     -0.000413
     15.29885     11.62023     11.45804        -0.001243     -0.000746     -0.000446
      7.82733      3.74737      3.86692         0.002021     -0.000677      0.001284
      7.80544      3.75812     11.54661        -0.000220     -0.001402      0.000392
      7.80941     11.62862      3.88218        -0.000017      0.000205      0.001326
      7.72676     11.48763     11.45203         0.000180     -0.000995     -0.000404
      3.94413     15.45180      0.09776         0.000487     -0.000160      0.000830
      3.83620     15.37473      7.80673         0.000959     -0.000679     -0.000446
      3.75344      7.85881     15.37126        -0.001408      0.000973     -0.000709
      3.91607      7.64577      7.80136        -0.001079     -0.000374      0.000754
     11.66758      0.00864     15.31751         0.000548      0.000156      0.000034
     11.57584      0.10413      7.61568        -0.000242     -0.000505     -0.000193
     11.43320      7.74228      0.08379         0.001245      0.000484     -0.000082
     11.64273      7.70296      7.78562        -0.001015     -0.001028     -0.000981
      3.77050      0.03302      3.75721         0.000061      0.001196      0.000665
      3.96061     15.44087     11.46908         0.000834     -0.000575      0.000223
      3.93395      7.61670      3.88345        -0.000867     -0.001401      0.000049
      3.81375      7.83990     11.42074        -0.001870     -0.001288     -0.000381
     11.47473     15.46552      3.94770         0.001008      0.000841     -0.000578
     11.53215      0.10127     11.65004         0.000008     -0.000782     -0.000455
     11.64694      7.72862      3.74791        -0.000201     -0.000722      0.000055
     11.66833      7.71023     11.44768         0.000143     -0.000450     -0.001605
      3.96231      3.88478      0.08762         0.000497      0.000606      0.000942
      3.89397      3.97597      7.78760         0.000499     -0.000339      0.000290
      3.87969     11.48987     15.30500        -0.000494     -0.000309      0.000172
      3.87136     11.69149      7.59483         0.000262     -0.000430      0.000272
     11.66582      3.86854      0.10344         0.001651      0.001257      0.000917
     11.45307      3.74971      7.67565         0.000922     -0.000255     -0.001184
     11.43220     11.60611     15.31641         0.000734      0.000440     -0.000447
     11.43157     11.63491      7.61576        -0.001336     -0.000101     -0.000188
      3.87330      3.98679      3.75453         0.000108     -0.000367      0.000950
      3.76168      3.89288     11.45447        -0.000367      0.000116      0.000004
      3.75882     11.57683      3.94074        -0.000953      0.000165      0.000735
      3.82545     11.47932     11.65703        -0.000569     -0.001158      0.000067
[...]
     11.48622      9.67379      3.85723         0.000627      0.000262     -0.002711
     11.43153      9.67342     11.55067        -0.004788     -0.000986     -0.002527
      3.86147      5.81977     15.38560        -0.002557      0.000040     -0.002270
      3.81957     13.52195      0.05770        -0.003514      0.000377      0.000162
     11.55224      5.80092     15.27750        -0.001187      0.000582     -0.003880
     11.56560      5.76180      7.59413         0.002248     -0.000703     -0.005377
     11.52759     13.53439      0.15867        -0.002837      0.000612      0.000115
     11.65423     13.55856      7.78947         0.005429     -0.000448     -0.001801
      3.88698      5.81706     11.62414         0.000078     -0.000576      0.003092
      3.94015     13.54580      3.86132        -0.001951      0.000102      0.000779
      3.78744     13.51904     11.49105        -0.000905     -0.000168      0.001049
     11.55893      5.78882      4.00935        -0.002286     -0.000155      0.005160
     11.59717      5.78454     11.63209         0.000992     -0.000654      0.002246
     11.64820     13.53865      3.72335        -0.001565      0.000270      0.000079
     11.54084     13.54404     11.44381         0.002784     -0.000602     -0.000465
    total drift:                               -0.003969     -0.003031     -0.005526

  FREE ENERGIE OF THE ION-ELECTRON SYSTEM (eV)
  free  energy   TOTEN  =     -1708.83147385 eV

  energy  without entropy=    -1708.83147385  energy(sigma->0) =    -1708.83147385

 stress matrix after NEB project (eV)
     -0.06775      0.00148      0.00087
      0.00148     -0.06055      0.00493
      0.00087      0.00493     -0.06501
  FORCES: max atom, RMS     0.008787    0.003496
  FORCE total and by dimension    0.055931    0.008001
  Stress total and by dimension    0.111966    0.067746
 Quasi-Newton relaxation of ions (Broydens 2nd method)
  g(Force)  = 0.151E-03   g(Stress)= 0.236E-05

 Reset! Starting new Quasi-Newton update for ions

 reached required accuracy - stopping structural energy minimisation
 writing wavefunctions

 total charge

[...]

 magnetization (x)

# of ion       s       p       d       tot
    1       -0.000  -0.000  -0.000  -0.000
    2        0.000   0.000   0.000   0.000
    3        0.000   0.000  -0.000  -0.000
    4        0.000   0.000   0.000   0.000
    5        0.000   0.000   0.000   0.000
    6        0.000  -0.000   0.000   0.000
    7       -0.000  -0.000  -0.000  -0.000
    8       -0.000  -0.000   0.000   0.000
    9       -0.000  -0.000  -0.000  -0.000
   10        0.000  -0.000   0.000   0.000
   11        0.000   0.000   0.000   0.000
   12       -0.000   0.000  -0.000  -0.000
   13        0.000   0.000  -0.000  -0.000
   14        0.000  -0.000   0.000   0.000
   15        0.000   0.000   0.000   0.000
   16        0.000   0.000   0.000   0.000
   17        0.000   0.000  -0.000  -0.000
   18        0.000   0.000  -0.000   0.000
   19        0.000  -0.000   0.000   0.000
   20       -0.000   0.000   0.000   0.000
   21       -0.000   0.000  -0.000  -0.000
   22        0.000   0.000   0.000   0.000
   23       -0.000  -0.000  -0.000  -0.000
   24       -0.000   0.000   0.000   0.000
   25        0.000   0.000   0.000   0.000
   26        0.000   0.000   0.000   0.000
   27        0.000  -0.000   0.000   0.000
   28       -0.000   0.000  -0.000   0.000
   29        0.000  -0.000   0.000   0.000
   30       -0.000  -0.000   0.000   0.000
   31        0.000   0.000   0.000   0.000
   32        0.000   0.000   0.000   0.000
   33        0.000   0.000   0.000   0.000
   34        0.000   0.000  -0.000  -0.000
   35       -0.000  -0.000  -0.000  -0.000
   36        0.000   0.000   0.000   0.000
   37       -0.000   0.000  -0.000  -0.000
   38        0.000  -0.000  -0.000  -0.000
   39       -0.000   0.000  -0.000  -0.000
   40       -0.000  -0.000   0.000  -0.000
   41        0.000  -0.000  -0.000  -0.000
   42        0.000   0.000  -0.000  -0.000
   43       -0.000   0.000  -0.000  -0.000
   44        0.000   0.000  -0.000  -0.000
   45       -0.000  -0.000  -0.000  -0.000
   46        0.000  -0.000   0.000  -0.000
   47       -0.000  -0.000  -0.000  -0.000
   48       -0.000   0.000  -0.000  -0.000
   49        0.000  -0.000  -0.000  -0.000
   50        0.000   0.000   0.000   0.000
   51       -0.000  -0.000   0.000   0.000
   52       -0.000   0.000  -0.000  -0.000
   53       -0.000   0.000   0.000   0.000
   54        0.000  -0.000   0.000   0.000
   55       -0.000   0.000  -0.000  -0.000
   56        0.000   0.000   0.000   0.000
   57        0.000  -0.000  -0.000  -0.000
   58        0.000  -0.000   0.000   0.000
   59       -0.000   0.000  -0.000  -0.000
   60       -0.000  -0.000   0.000   0.000
[...]
  242        0.000   0.000   0.000   0.000
  243       -0.000   0.000   0.000  -0.000
  244       -0.000   0.000   0.000  -0.000
  245       -0.000   0.000   0.000   0.000
  246       -0.000  -0.000   0.000  -0.000
  247       -0.000   0.000   0.000  -0.000
  248        0.000  -0.000   0.000   0.000
  249       -0.000  -0.000   0.000  -0.000
  250       -0.000  -0.000   0.000  -0.000
  251        0.000  -0.000   0.000  -0.000
  252       -0.000   0.000   0.000   0.000
  253       -0.000   0.000   0.000  -0.000
  254       -0.000   0.000   0.000   0.000
  255        0.000  -0.000   0.000  -0.000
  256       -0.000  -0.000   0.000  -0.000
tot         -0.000   0.000  -0.000  -0.000