 vasp.5.4.4.18Apr17-6-g9f103f2a35 (build Jul 16 2019 12:12:28) complex

 executed on             LinuxIFC date 2020.01.06  15:18:33

 INCAR:
 POTCAR:    PAW_PBE Li_sv 10Sep2004
 POTCAR:    PAW_PBE Ti_pv 07Sep2000
 POTCAR:    PAW_PBE O 08Apr2002
 POTCAR:    PAW_PBE F 08Apr2002
 POTCAR:    PAW_PBE Li_sv 10Sep2004
   VRHFIN =Li: 1s2s2p

   TITEL  = PAW_PBE Li_sv 10Sep2004
   POMASS =    7.010; ZVAL   =    3.000    mass and valenz
   ENMAX  =  499.034; ENMIN  =  374.276 eV

 POTCAR:    PAW_PBE Ti_pv 07Sep2000
   VRHFIN =Ti: d3 s1

   TITEL  = PAW_PBE Ti_pv 07Sep2000
   POMASS =   47.880; ZVAL   =   10.000    mass and valenz
   ENMAX  =  222.335; ENMIN  =  166.751 eV

 POTCAR:    PAW_PBE O 08Apr2002
   VRHFIN =O: s2p4

   TITEL  = PAW_PBE O 08Apr2002
   POMASS =   16.000; ZVAL   =    6.000    mass and valenz
   ENMAX  =  400.000; ENMIN  =  300.000 eV

 POTCAR:    PAW_PBE F 08Apr2002
   VRHFIN =F: s2p5

   TITEL  = PAW_PBE F 08Apr2002
   POMASS =   18.998; ZVAL   =    7.000    mass and valenz
   ENMAX  =  400.000; ENMIN  =  300.000 eV

 Optimization of the real space projectors (new method)

 maximal supplied QI-value         = 22.11
 optimisation between [QCUT,QGAM] = [ 11.28, 22.77] = [ 35.61,145.23] Ry
 Optimized for a Real-space Cutoff    1.31 Angstroem

   l    n(q)    QCUT    max X(q) W(low)/X(q) W(high)/X(q)  e(spline)
   0      9    11.276    10.506    0.19E-04    0.17E-04    0.32E-07
   0      9    11.276     8.367    0.38E-04    0.40E-04    0.65E-07
   1      8    11.276     8.983    0.55E-04    0.98E-04    0.20E-06
 Optimization of the real space projectors (new method)

[...]

   l    n(q)    QCUT    max X(q) W(low)/X(q) W(high)/X(q)  e(spline)
   0      8    11.387    20.381    0.89E-04    0.31E-03    0.27E-06
   0      8    11.387    15.268    0.93E-04    0.32E-03    0.29E-06
   1      8    11.387     5.964    0.53E-04    0.28E-03    0.29E-06
   1      8    11.387     5.382    0.37E-04    0.22E-03    0.26E-06
 Optimization of the real space projectors (new method)

 maximal supplied QI-value         = 24.76
 optimisation between [QCUT,QGAM] = [ 11.39, 22.77] = [ 36.31,145.25] Ry
 Optimized for a Real-space Cutoff    1.20 Angstroem

   l    n(q)    QCUT    max X(q) W(low)/X(q) W(high)/X(q)  e(spline)
   0      8    11.387    14.049    0.69E-04    0.23E-03    0.18E-06
   0      8    11.387     8.945    0.88E-04    0.30E-03    0.26E-06
   1      8    11.387     7.086    0.62E-04    0.27E-03    0.27E-06
   1      8    11.387     6.747    0.46E-04    0.23E-03    0.25E-06

  PAW_PBE Li_sv 10Sep2004               :
  PAW_PBE Ti_pv 07Sep2000               :
  PAW_PBE O 08Apr2002                   :
  PAW_PBE F 08Apr2002                   :

 POSCAR: config 56
  positions in direct lattice
  velocities in cartesian coordinates
 exchange correlation table for  LEXCH =       14
   RHO(1)=    0.500       N(1)  =     2000
   RHO(2)=  100.500       N(2)  =     4000

 VTST: version 3.2, (02/03/18)

 CHAIN: initializing optimizer

 OPT: Using VASP QUASI-newton optimizer
 CHAIN: Read ICHAIN            0

 POSCAR: config 56
  positions in direct lattice
  velocities in cartesian coordinates

 ion  position               nearest neighbor table
   1  0.879  0.377  0.947- 194 1.87 110 1.94 117 1.97 247 2.14  18 2.81   4 2.84  54 2.88
   2  0.996  0.993  0.993- 118 1.86  68 1.89 103 1.90 171 2.03 212 2.03 130 2.06
   3  0.998  0.992  0.493- 119 1.82  67 1.83 172 1.96 193 1.97 131 2.01 213 2.10
   4  0.010  0.497  0.996-  89 1.82 117 1.82 138 1.95 132 1.98 214 2.02 194 2.14   1 2.84
   5  0.994  0.502  0.507-  66 1.83 104 1.84 215 1.94 223 2.01 173 2.02 137 2.02
   6  0.495  0.993  1.000- 101 1.83 121 1.85 140 1.96 133 1.98 216 2.02 174 2.03
   7  0.502  0.009  0.498- 112 1.78 191 1.92 134 1.92 139 1.93 175 1.94 225 2.04
   8  0.503  0.495  0.996- 120 1.88  70 1.88  90 1.89 192 2.00 135 2.04 217 2.07
   9  0.492  0.499  0.495- 102 1.81  69 1.86 224 1.99 218 2.00 136 2.01 176 2.07
  10  0.007  0.004  0.256-  91 1.84  67 1.87 219 1.95 227 1.98 130 2.00 197 2.06
  11  0.002  0.009  0.755-  68 1.80 113 1.84 177 1.95 198 1.99 228 2.05 131 2.06
  12  0.994  0.493  0.252- 107 1.83 122 1.85 137 1.93 132 1.97 220 2.01 178 2.02
  13  0.993  0.499  0.741-  66 1.82 108 1.83 226 1.94 221 1.97 138 2.02 179 2.05
  14  0.505  0.009  0.251- 114 1.82  92 1.84 133 1.93 139 1.99 195 2.00 231 2.07
  15  0.493  0.005  0.753- 105 1.81 115 1.84 140 1.94 134 2.01 232 2.01 180 2.04
  16  0.492  0.496  0.257-  69 1.83 106 1.84 229 1.96 222 2.01 135 2.02 181 2.05
  17  0.500  0.504  0.759-  70 1.81 116 1.87 182 1.95 196 1.97 230 2.03 136 2.08
  18  0.001  0.253  0.000- 117 1.96 212 1.99 141 2.02 183 2.03 146 2.04 110 2.04   1 2.81
  19  0.999  0.247  0.491-  74 1.77 213 1.92 184 1.94 202 1.94 223 1.96 142 2.02
  20  0.999  0.757  0.005- 118 1.81  71 1.85 203 1.96 185 1.99 148 2.04 214 2.05
  21  0.996  0.758  0.505- 119 1.83  72 1.84 204 1.95 186 1.98 147 2.02 215 2.04
  22  0.496  0.259  0.002- 120 1.81 109 1.83 150 1.97 143 1.99 187 2.01 216 2.08
  23  0.509  0.246  0.498-  93 1.80 112 1.91 144 1.93 149 1.94 224 1.98 199 2.01
  24  0.508  0.756  1.000-  94 1.83 121 1.84 152 1.94 145 1.99 217 2.02 200 2.03
  25  0.507  0.753  0.508-  73 1.79  95 1.84 225 1.97 218 1.98 201 2.02 151 2.07
  26  0.000  0.258  0.256- 122 1.80  74 1.90 141 1.93 209 1.96 188 1.97 219 2.04
  27  0.007  0.242  0.745- 113 1.81  96 1.84 146 1.92 142 1.97 210 2.06 226 2.08
  28  0.006  0.749  0.243-  71 1.82  97 1.84 220 1.95 227 1.98 147 2.05 211 2.06
  29  0.993  0.751  0.742- 111 1.83  72 1.84 228 1.93 221 1.98 189 2.02 148 2.03
  30  0.508  0.241  0.252-  98 1.81 114 1.83 143 1.94 149 1.97 229 2.03 205 2.03
  31  0.507  0.243  0.750-  99 1.84 115 1.84 150 1.93 144 1.98 206 2.00 230 2.02
  32  0.506  0.751  0.252- 100 1.79 151 1.93 231 1.94 145 1.94 222 1.95 207 2.00
  33  0.502  0.742  0.744- 116 1.81  73 1.84 190 1.93 208 1.97 152 2.03 232 2.06
  34  0.257  0.998  0.005-  75 1.85 101 1.86 246 1.94 233 1.96 171 2.02 157 2.04
  35  0.252  0.994  0.506- 128 1.83  76 1.84 172 1.96 191 2.00 156 2.02 234 2.03
  36  0.247  0.509  0.998- 123 1.82  89 1.84 159 1.94 153 1.98 192 2.00 245 2.04
  37  0.255  0.494  0.506-  77 1.86 127 1.88 102 1.88 173 2.05 158 2.05 235 2.06
  38  0.757  0.999  0.994- 103 1.79  81 1.87 249 1.96 236 1.96 154 2.05 174 2.06
  39  0.749  0.008  0.495-  80 1.83 124 1.84 193 1.94 155 1.99 175 2.00 250 2.05
  40  0.738  0.504  0.006-  90 1.78  78 1.86 237 1.95 247 2.00 161 2.04 194 2.09
  41  0.755  0.498  0.505-  79 1.85 104 1.85 248 1.97 238 1.99 176 2.02 160 2.03
  42  0.245  0.003  0.243-  75 1.84  91 1.85 239 1.94 252 1.97 156 2.04 195 2.06
  43  0.258  0.998  0.744- 105 1.84  76 1.84 253 1.93 240 1.97 177 2.02 157 2.03
  44  0.255  0.491  0.252- 129 1.83 106 1.84 158 1.93 153 1.97 241 2.05 178 2.05
  45  0.247  0.506  0.741-  77 1.79 125 1.84 179 1.95 196 1.98 251 2.02 159 2.07
  46  0.744  0.002  0.255-  92 1.85  80 1.86 256 1.95 242 1.96 154 2.00 197 2.00
  47  0.748  0.007  0.755-  81 1.82 126 1.84 180 1.95 198 1.96 257 2.04 155 2.07
  48  0.755  0.497  0.243-  78 1.83 107 1.85 243 1.96 254 1.96 181 2.02 160 2.05
  49  0.757  0.498  0.742-  79 1.83 108 1.83 255 1.95 244 1.98 182 2.03 161 2.06
  50  0.259  0.252  0.006- 109 1.84  82 1.86 245 1.94 183 1.97 233 1.98 168 2.03
  51  0.254  0.257  0.505- 127 1.81  83 1.85 199 1.97 184 2.02 167 2.03 234 2.06
  52  0.253  0.743  0.994- 123 1.82  86 1.84 200 1.95 185 1.97 162 2.03 246 2.04
  53  0.252  0.755  0.493-  85 1.83 128 1.87 201 1.96 186 1.99 235 2.01 163 2.04
  54  0.755  0.251  0.007- 110 1.77  84 1.88 236 1.94 247 2.01 187 2.02 170 2.06   1 2.88
  55  0.742  0.243  0.498- 124 1.83  93 1.85 169 1.93 164 1.96 248 2.04 202 2.04
  56  0.741  0.749  0.994-  94 1.82  88 1.83 249 1.95 237 1.96 203 2.03 165 2.04
  57  0.741  0.753  0.494-  95 1.82  87 1.86 250 1.96 238 1.98 166 2.01 204 2.04
  58  0.251  0.258  0.244-  82 1.82 129 1.83 205 1.97 188 2.00 167 2.03 239 2.04
  59  0.244  0.252  0.744-  96 1.84  83 1.84 251 1.94 240 1.98 168 2.02 206 2.05
  60  0.244  0.747  0.256-  97 1.83  85 1.84 241 1.94 252 1.98 162 2.03 207 2.06
[...]
 243  0.752  0.624  0.240-  64 1.95  48 1.96
 244  0.737  0.624  0.741-  65 1.98  49 1.98
 245  0.245  0.377  0.995-  50 1.94  36 2.04
 246  0.237  0.874  0.003-  34 1.94  52 2.04
 247  0.743  0.377  0.978-  40 2.00  54 2.01   1 2.14
 248  0.763  0.372  0.484-  41 1.97  55 2.04
 249  0.734  0.875  0.001-  56 1.95  38 1.96
 250  0.769  0.877  0.497-  57 1.96  39 2.05
 251  0.256  0.376  0.757-  59 1.94  45 2.02
 252  0.249  0.875  0.253-  42 1.97  60 1.98
 253  0.248  0.874  0.746-  43 1.93  61 2.04
 254  0.740  0.374  0.271-  62 1.95  48 1.96
 255  0.758  0.374  0.766-  49 1.95  63 2.07
 256  0.748  0.875  0.251-  64 1.95  46 1.95
 257  0.752  0.875  0.751-  65 1.93  47 2.04

IMPORTANT INFORMATION: All symmetrisations will be switched off!
NOSYMM: (Re-)initialisation of all symmetry stuff for point group C_1.

 KPOINTS: Title

Automatic generation of k-mesh.
Space group operators:
 irot       det(A)        alpha          n_x          n_y          n_z        tau_x        tau_y        tau_z
    1     1.000000     0.000001     1.000000     0.000000     0.000000     0.000000     0.000000     0.000000

 Subroutine IBZKPT returns following result:

 Found      4 irreducible k-points:

 Following reciprocal coordinates:
            Coordinates               Weight
  0.250000  0.250000  0.250000      2.000000
 -0.250000  0.250000  0.250000      2.000000
  0.250000 -0.250000  0.250000      2.000000
 -0.250000 -0.250000  0.250000      2.000000

 Following cartesian coordinates:
            Coordinates               Weight
  0.016206  0.016206  0.016206      2.000000
 -0.016206  0.016206  0.016206      2.000000
  0.016206 -0.016206  0.016206      2.000000
 -0.016206 -0.016206  0.016206      2.000000

 SYSTEM =  LTO
 POSCAR =  config 56

 Startparameter for this run:
   NWRITE =      2    write-flag & timer
   PREC   = accura    normal or accurate (medium, high low for compatibility)
   ISTART =      1    job   : 0-new  1-cont  2-samecut
   ICHARG =      0    charge: 1-file 2-atom 10-const
   ISPIN  =      2    spin polarized calculation?
   LNONCOLLINEAR =      F non collinear calculations
   LSORBIT =      F    spin-orbit coupling
   INIWAV =      1    electr: 0-lowe 1-rand  2-diag
   LASPH  =      T    aspherical Exc in radial PAW
   METAGGA=      F    non-selfconsistent MetaGGA calc.

 Electronic Relaxation 1
   ENCUT  =  500.0 eV  36.75 Ry    6.06 a.u.  28.13 28.13 28.13*2*pi/ulx,y,z
   ENINI  =  500.0     initial cutoff
   ENAUG  =  628.9 eV  augmentation charge cutoff
   NELM   =     60;   NELMIN=  2; NELMDL=  0     # of ELM steps
   EDIFF  = 0.1E-05   stopping-criterion for ELM
   LREAL  =      T    real-space projection
   NLSPLINE    = F    spline interpolate recip. space projectors
   LCOMPAT=      F    compatible to vasp.4.4
   GGA_COMPAT  = T    GGA compatible to vasp.4.4-vasp.4.6
   LMAXPAW     = -100 max onsite density
   LMAXMIX     =    4 max onsite mixed and CHGCAR
   VOSKOWN=      0    Vosko Wilk Nusair interpolation
   ROPT   =   -0.00010  -0.00010  -0.00010  -0.00010
 Ionic relaxation
   EDIFFG = -.5E-01   stopping-criterion for IOM
[...]
   0.213E+02 -.787E+01 0.526E+01   -.223E+02 0.809E+01 -.618E+01   0.927E+00 -.220E+00 0.925E+00   -.237E-02 0.346E-03 -.133E-03
   0.467E+01 0.540E+01 0.181E+02   -.375E+01 -.650E+01 -.180E+02   -.933E+00 0.110E+01 -.656E-01   -.274E-02 0.151E-02 0.145E-03
   -.649E+01 0.131E+02 -.114E+02   0.730E+01 -.139E+02 0.118E+02   -.801E+00 0.847E+00 -.323E+00   0.839E-03 0.397E-03 -.296E-05
   -.214E+02 0.104E+02 -.208E+01   0.217E+02 -.104E+02 0.211E+01   -.225E+00 -.426E-01 -.302E-01   -.216E-02 -.119E-02 -.730E-03
   0.227E+02 0.304E+02 -.214E+01   -.223E+02 -.314E+02 0.833E+00   -.374E+00 0.941E+00 0.131E+01   0.178E-02 -.450E-03 0.148E-02
   -.124E+02 -.186E+01 -.987E+01   0.132E+02 0.168E+01 0.108E+02   -.800E+00 0.171E+00 -.887E+00   -.520E-03 0.507E-04 0.137E-02
   0.211E+02 0.267E+02 -.282E+02   -.212E+02 -.275E+02 0.291E+02   0.179E+00 0.785E+00 -.878E+00   -.114E-02 0.426E-03 -.114E-02
   0.257E+02 -.176E+02 0.418E+01   -.264E+02 0.186E+02 -.439E+01   0.702E+00 -.107E+01 0.204E+00   0.234E-03 -.434E-03 0.189E-02
   -.224E+02 0.107E+02 -.827E+01   0.235E+02 -.118E+02 0.962E+01   -.104E+01 0.110E+01 -.135E+01   0.379E-03 -.137E-02 -.275E-02
   -.319E+02 0.706E+01 0.430E+02   0.326E+02 -.703E+01 -.441E+02   -.699E+00 -.242E-01 0.106E+01   0.189E-03 -.137E-02 -.254E-02
   0.565E+00 -.695E+01 0.353E+02   -.262E+00 0.812E+01 -.358E+02   -.299E+00 -.117E+01 0.483E+00   0.119E-02 -.166E-03 0.265E-02
   0.467E+02 -.222E+02 -.438E+02   -.475E+02 0.224E+02 0.449E+02   0.844E+00 -.221E+00 -.112E+01   -.138E-02 0.116E-02 -.134E-02
   -.172E+02 -.212E+02 -.140E+02   0.180E+02 0.210E+02 0.149E+02   -.753E+00 0.211E+00 -.874E+00   -.594E-03 -.310E-03 0.121E-02
   0.490E+02 0.942E+01 0.348E+02   -.500E+02 -.915E+01 -.358E+02   0.969E+00 -.260E+00 0.951E+00   -.675E-03 0.166E-02 0.168E-02
   -.862E+01 -.890E+01 0.412E+01   0.973E+01 0.863E+01 -.489E+01   -.111E+01 0.263E+00 0.762E+00   -.710E-03 -.626E-03 -.170E-02
   -.863E+01 0.149E+02 -.611E+01   0.956E+01 -.160E+02 0.637E+01   -.917E+00 0.117E+01 -.261E+00   0.884E-03 -.300E-02 0.782E-03
   0.157E+01 -.286E+02 0.111E+02   -.181E+01 0.298E+02 -.122E+02   0.240E+00 -.114E+01 0.115E+01   0.114E-04 0.877E-03 -.146E-03
   0.155E+02 0.574E+01 -.230E+02   -.161E+02 -.579E+01 0.236E+02   0.607E+00 0.442E-01 -.590E+00   0.148E-02 0.625E-03 -.113E-02
   -.174E+02 -.227E+02 -.500E+02   0.173E+02 0.239E+02 0.508E+02   0.160E+00 -.122E+01 -.799E+00   0.711E-03 -.138E-02 0.102E-02
   -.229E+02 -.119E+02 0.214E+02   0.237E+02 0.117E+02 -.222E+02   -.859E+00 0.159E+00 0.851E+00   -.663E-03 -.614E-03 -.220E-02
   0.239E+01 -.204E+02 0.303E+02   -.134E+01 0.202E+02 -.313E+02   -.105E+01 0.194E+00 0.963E+00   0.122E-03 0.163E-02 0.226E-02
   -.138E+02 0.996E+01 -.282E+02   0.144E+02 -.967E+01 0.290E+02   -.502E+00 -.280E+00 -.855E+00   -.129E-04 0.634E-03 0.389E-02
   0.194E+02 -.248E+02 -.308E+02   -.189E+02 0.257E+02 0.318E+02   -.466E+00 -.947E+00 -.985E+00   -.163E-04 0.377E-03 -.349E-02
   0.159E+02 0.451E+01 0.134E+02   -.155E+02 -.562E+01 -.144E+02   -.372E+00 0.111E+01 0.976E+00   -.834E-04 -.123E-03 0.257E-03
   0.123E+02 -.129E+02 0.544E+00   -.120E+02 0.137E+02 -.150E+01   -.302E+00 -.746E+00 0.955E+00   -.778E-03 0.693E-03 -.365E-03
   0.114E+02 0.285E+02 -.443E+02   -.109E+02 -.288E+02 0.458E+02   -.544E+00 0.293E+00 -.149E+01   -.427E-03 0.124E-02 -.130E-02
   0.230E+02 0.863E+01 -.113E+02   -.242E+02 -.944E+01 0.111E+02   0.121E+01 0.795E+00 0.190E+00   0.399E-03 0.648E-03 0.551E-03
   0.857E+01 -.554E+01 0.191E+02   -.956E+01 0.543E+01 -.201E+02   0.990E+00 0.108E+00 0.963E+00   -.215E-03 -.113E-02 -.331E-02
   -.600E+00 0.137E+02 0.180E+02   -.338E+00 -.135E+02 -.189E+02   0.939E+00 -.214E+00 0.957E+00   0.133E-02 -.172E-03 0.348E-02
   0.156E+02 -.205E+02 0.338E+02   -.156E+02 0.217E+02 -.347E+02   -.146E-01 -.120E+01 0.837E+00   -.566E-04 0.191E-02 0.100E-02
   0.231E+02 0.116E+02 0.212E+02   -.241E+02 -.113E+02 -.221E+02   0.982E+00 -.320E+00 0.840E+00   0.102E-02 -.359E-03 -.144E-02
   0.279E+02 -.114E+01 -.111E+02   -.290E+02 0.845E+00 0.121E+02   0.107E+01 0.295E+00 -.958E+00   0.490E-03 -.663E-03 0.103E-02
[...]
   0.454E+02 -.333E+01 0.287E+02   -.526E+02 0.348E+01 -.318E+02   0.718E+01 -.152E+00 0.301E+01   0.485E-03 0.110E-02 0.187E-02
   0.350E+02 -.652E+01 0.106E+02   -.379E+02 0.108E+02 -.130E+02   0.289E+01 -.430E+01 0.245E+01   0.243E-03 -.897E-05 0.228E-02
   0.587E+02 0.923E+01 -.490E+01   -.650E+02 -.136E+02 0.556E+01   0.627E+01 0.438E+01 -.682E+00   -.180E-03 -.573E-04 0.152E-03
   0.798E+02 0.544E+01 0.371E+02   -.857E+02 -.604E+01 -.451E+02   0.591E+01 0.597E+00 0.806E+01   -.308E-03 0.114E-02 -.437E-03
   -.431E+02 -.974E+01 0.441E+02   0.476E+02 0.676E+01 -.501E+02   -.456E+01 0.297E+01 0.606E+01   -.323E-03 -.325E-03 0.518E-03
   0.364E+02 -.816E+01 0.465E+01   -.428E+02 0.931E+01 -.196E+01   0.641E+01 -.114E+01 -.271E+01   0.490E-03 -.412E-03 -.230E-02
   -.782E+02 -.212E+01 0.191E+02   0.862E+02 0.588E+01 -.183E+02   -.801E+01 -.375E+01 -.823E+00   0.105E-02 0.200E-04 0.220E-02
   -.187E+02 -.701E+01 -.213E+02   0.224E+02 0.108E+02 0.266E+02   -.375E+01 -.380E+01 -.529E+01   0.328E-03 0.185E-03 -.670E-03
   0.251E+02 0.415E+01 -.354E+01   -.233E+02 -.463E+01 0.479E+01   -.178E+01 0.470E+00 -.126E+01   -.270E-03 0.699E-04 0.950E-03
   0.983E+01 0.168E+02 0.633E+01   -.120E+02 -.220E+02 -.764E+01   0.214E+01 0.524E+01 0.134E+01   -.599E-03 0.167E-03 -.861E-03
   0.248E+02 -.154E+02 -.597E+02   -.281E+02 0.166E+02 0.707E+02   0.330E+01 -.118E+01 -.111E+02   -.342E-03 -.122E-03 -.109E-02
   -.245E+01 0.157E+02 -.377E+02   0.406E+01 -.208E+02 0.443E+02   -.163E+01 0.511E+01 -.659E+01   -.244E-03 0.139E-03 0.104E-02
   -.108E+01 0.379E+01 0.818E+00   0.257E+01 -.376E+01 -.298E+01   -.150E+01 -.377E-01 0.219E+01   0.592E-03 -.746E-04 -.100E-02
   -.185E+02 -.136E+02 -.223E+02   0.181E+02 0.186E+02 0.205E+02   0.449E+00 -.496E+01 0.187E+01   0.802E-03 -.899E-03 0.114E-02
   -.216E+01 -.235E+01 0.109E+02   -.568E-12 0.885E-12 0.234E-12   0.213E+01 0.236E+01 -.110E+02   -.671E-03 -.296E-04 0.489E-03

 POSITION                                       TOTAL-FORCE (eV/Angst)
     13.55646      5.81905     14.60632        -0.000802     -0.008395      0.004060
     15.36933     15.32336     15.32101        -0.006104     -0.006887     -0.007541
     15.40193     15.30704      7.60105         0.008146     -0.005463      0.002660
      0.15708      7.66433     15.36577        -0.010621      0.001803      0.002268
     15.33377      7.74850      7.81869         0.001589     -0.000351      0.006121
      7.64164     15.32375     15.42608        -0.006010     -0.002113     -0.001210
      7.74472      0.13763      7.68883        -0.006916      0.011502      0.003621
      7.75396      7.63976     15.37136         0.005726     -0.002265     -0.007288
      7.58507      7.70124      7.64125        -0.010801     -0.003559     -0.002915
      0.10487      0.05927      3.94413         0.009641      0.002515      0.005686
      0.02870      0.13276     11.65307         0.001959     -0.002604     -0.006900
     15.32947      7.60010      3.88425        -0.001703     -0.004205      0.000154
     15.31694      7.69280     11.43205        -0.010317      0.001264     -0.001913
      7.79571      0.14501      3.86605        -0.005552      0.006275      0.000850
      7.60880      0.08230     11.61385         0.002318      0.001951     -0.005171
      7.59656      7.64408      3.96900        -0.003024      0.001510     -0.000275
      7.71932      7.76891     11.70299         0.010614      0.012036     -0.002940
      0.01119      3.89884      0.00640        -0.002025      0.007712      0.003956
     15.40432      3.80706      7.58169         0.007706     -0.002812     -0.004194
     15.40498     11.68497      0.07998        -0.004069     -0.004655     -0.006244
     15.37003     11.69159      7.78627         0.000802      0.006786      0.012628
      7.65100      3.98804      0.02687        -0.000655      0.000057     -0.004892
      7.84930      3.79526      7.68259        -0.011137     -0.005839     -0.000774
      7.83203     11.65866     15.42069         0.001307      0.005492     -0.011190
      7.82484     11.62240      7.84183        -0.002143     -0.004046      0.015293
      0.00602      3.97529      3.95274         0.001813      0.003414      0.008863
      0.10051      3.73175     11.49825         0.000637     -0.005238      0.002883
      0.09928     11.54840      3.74708         0.006081      0.001236     -0.010508
     15.31752     11.59020     11.45128        -0.001010      0.007782      0.003912
      7.83965      3.72109      3.88950        -0.016085      0.005166     -0.004895
      7.81513      3.75503     11.57307         0.006039     -0.005099      0.000237
      7.80830     11.58810      3.88623        -0.001177     -0.002174     -0.001704
      7.74485     11.44102     11.47174         0.002269      0.001432      0.004384
      3.96901     15.38927      0.08297        -0.000292     -0.004249      0.008109
      3.88159     15.32737      7.80635        -0.006835     -0.005288     -0.003364
      3.80392      7.84873     15.38796        -0.014196      0.001600     -0.002155
      3.92828      7.62687      7.80948         0.004349     -0.006473     -0.005310
     11.68140     15.41478     15.33021        -0.005488      0.003494     -0.009941
     11.56006      0.12540      7.63499         0.004603     -0.005718      0.006202
     11.38445      7.77271      0.08676         0.009143     -0.005140     -0.001891
     11.65134      7.67891      7.78795         0.004672     -0.000944      0.013064
      3.78232      0.03902      3.75271        -0.006662      0.004467      0.004121
      3.98728     15.39675     11.47998         0.000677     -0.007946     -0.011131
      3.92617      7.58000      3.88197         0.006790     -0.011419      0.003696
      3.80276      7.80387     11.42366         0.002497      0.020660     -0.013452
     11.48113      0.02847      3.94123        -0.004750     -0.002098      0.009433
     11.53508      0.11015     11.65224         0.000843      0.005595      0.000689
     11.65087      7.67370      3.74130        -0.000800      0.005106     -0.012240
     11.67192      7.67920     11.43924         0.001516      0.003986      0.009695
      3.98803      3.88779      0.08891         0.003800      0.004186      0.013564
      3.92229      3.95962      7.79095        -0.001466      0.002124     -0.008010
      3.90000     11.45473     15.33356        -0.004904     -0.002608     -0.013172
      3.89478     11.65010      7.60309        -0.005308      0.005673      0.002045
     11.64982      3.86699      0.11496         0.006208      0.001254     -0.003028
     11.44583      3.74594      7.68271        -0.005502     -0.012466      0.004192
     11.43799     11.54925     15.33238         0.000440     -0.002596     -0.010749
     11.43651     11.61120      7.61777         0.002630     -0.001415      0.005802
      3.87327      3.97423      3.76133         0.007986     -0.001875      0.007168
      3.76756      3.88551     11.47064        -0.001401      0.000213     -0.016309
      3.75925     11.52700      3.94870        -0.001530     -0.000018      0.004843
[...]
     11.60555      9.63270      3.69610         0.017206      0.006016      0.005843
     11.37019      9.63159     11.42554         0.019677      0.002452      0.003954
      3.78382      5.81053     15.35564        -0.001266      0.000412      0.003489
      3.66269     13.47491      0.03880         0.012877     -0.002474     -0.019730
     11.46705      5.81975     15.08942         0.012935     -0.002932      0.014512
     11.77682      5.74447      7.46260        -0.015403     -0.005082      0.026513
     11.31522     13.49064      0.00804         0.027897      0.003801     -0.028205
     11.86036     13.52161      7.66192        -0.035608      0.002318     -0.013476
      3.94582      5.80421     11.67896        -0.001789      0.002062     -0.009662
      3.84693     13.50384      3.89988        -0.013011     -0.004664     -0.008280
      3.82478     13.47536     11.50403         0.021425     -0.000305      0.024470
     11.42168      5.77317      4.17977         0.005100      0.001096     -0.028241
     11.68676      5.77162     11.82232        -0.010123     -0.007642     -0.027059
     11.54066     13.50529      3.87465        -0.021620     -0.003109      0.028893
     11.60136     13.49679     11.57997         0.005423      0.006852      0.021072
    total drift:                               -0.031472      0.004148     -0.026801

  FREE ENERGIE OF THE ION-ELECTRON SYSTEM (eV)
  free  energy   TOTEN  =     -1757.86947844 eV

  energy  without entropy=    -1757.86947844  energy(sigma->0) =    -1757.86947844

 stress matrix after NEB project (eV)
    -29.50063     -0.27136      1.26425
     -0.27136    -16.72286      1.16473
      1.26448      1.16482    -33.69794
  FORCES: max atom, RMS     0.043736    0.022806
  FORCE total and by dimension    0.365603    0.040975
  Stress total and by dimension   47.870143   33.697944
 Quasi-Newton relaxation of ions (Broydens 2nd method)
  g(Force)  = 0.645E-02   g(Stress)= 0.000E+00

 Reset! Starting new Quasi-Newton update for ions

 reached required accuracy - stopping structural energy minimisation
 writing wavefunctions

 total charge

[...]

 magnetization (x)

# of ion       s       p       d       tot
    1       -0.000  -0.000   0.000  -0.000
    2       -0.000  -0.000  -0.000  -0.000
    3       -0.000  -0.000   0.000   0.000
    4       -0.000  -0.000  -0.002  -0.003
    5       -0.000  -0.000  -0.000  -0.000
    6       -0.000  -0.000   0.000   0.000
    7       -0.000  -0.000   0.000  -0.000
    8       -0.000  -0.000   0.000  -0.000
    9       -0.000  -0.000  -0.000  -0.000
   10       -0.000  -0.000   0.000   0.000
   11       -0.000  -0.000  -0.000  -0.000
   12       -0.000  -0.000  -0.000  -0.000
   13       -0.000   0.000   0.000   0.000
   14       -0.000  -0.000   0.000   0.000
   15       -0.000  -0.000  -0.000  -0.000
   16       -0.000  -0.000  -0.000  -0.000
   17       -0.000  -0.000   0.000   0.000
   18        0.005   0.007   0.886   0.898
   19        0.000   0.000   0.002   0.002
   20       -0.000  -0.000  -0.000  -0.000
   21       -0.000  -0.000   0.000   0.000
   22        0.000   0.000   0.001   0.001
   23        0.000   0.000   0.000   0.000
   24       -0.000  -0.000  -0.000  -0.000
   25       -0.000  -0.000  -0.000  -0.000
   26        0.000   0.000   0.015   0.015
   27       -0.000  -0.000   0.006   0.006
   28       -0.000  -0.000  -0.000  -0.000
   29       -0.000   0.000  -0.000  -0.000
   30        0.000   0.000   0.002   0.002
   31        0.000   0.000   0.000   0.000
   32        0.000  -0.000   0.000   0.000
   33        0.000   0.000  -0.000   0.000
   34       -0.000  -0.000   0.000   0.000
   35       -0.000   0.000   0.000   0.000
   36        0.000  -0.000  -0.000  -0.000
   37       -0.000  -0.000  -0.000  -0.000
   38       -0.000  -0.000  -0.000  -0.000
   39       -0.000  -0.000   0.000   0.000
   40       -0.000  -0.000   0.000   0.000
   41       -0.000  -0.000   0.000   0.000
   42       -0.000  -0.000   0.000   0.000
   43       -0.000  -0.000   0.000   0.000
   44       -0.000  -0.000  -0.000  -0.000
   45       -0.000  -0.000   0.000  -0.000
   46       -0.000  -0.000  -0.000  -0.000
   47       -0.000  -0.000  -0.000  -0.000
   48       -0.000  -0.000  -0.000  -0.000
   49       -0.000  -0.000   0.000   0.000
   50       -0.000  -0.000   0.005   0.005
   51        0.000   0.000   0.000   0.000
   52       -0.000  -0.000  -0.000  -0.000
   53        0.000   0.000   0.000   0.000
   54        0.000   0.001   0.052   0.053
   55        0.000   0.000   0.000   0.000
   56       -0.000  -0.000   0.000   0.000
   57       -0.000  -0.000  -0.000  -0.000
   58        0.000   0.000   0.003   0.003
   59        0.000   0.000   0.002   0.002
   60       -0.000  -0.000  -0.000  -0.000
[...]
  243       -0.000  -0.000   0.000  -0.000
  244       -0.000  -0.000   0.000  -0.000
  245       -0.000  -0.000   0.000  -0.000
  246       -0.000  -0.000   0.000  -0.000
  247       -0.000  -0.000   0.000  -0.000
  248       -0.000  -0.000   0.000  -0.000
  249       -0.000  -0.000   0.000  -0.000
  250       -0.000   0.000   0.000   0.000
  251       -0.000  -0.000   0.000  -0.000
  252       -0.000  -0.000   0.000  -0.000
  253       -0.000   0.000   0.000   0.000
  254       -0.000  -0.000   0.000  -0.000
  255       -0.000  -0.000   0.000  -0.000
  256       -0.000  -0.000   0.000  -0.000
  257       -0.000  -0.000   0.000  -0.000
tot          0.001  -0.049   0.984   0.936