 vasp.5.4.4.18Apr17-6-g9f103f2a35 (build Apr 30 2017 20:10:35) complex

 executed on             LinuxIFC date 2017.08.06  08:24:31

 INCAR:
 POTCAR:   PAW_PBE Ti_pv 07Sep2000
 POTCAR:   PAW_PBE O 08Apr2002
 POTCAR:    PAW_PBE F 08Apr2002
 POTCAR:   PAW_PBE Ti_pv 07Sep2000
   VRHFIN =Ti: d3 s1

   TITEL  = PAW_PBE Ti_pv 07Sep2000
   POMASS =   47.880; ZVAL   =   10.000    mass and valenz
   ENMAX  =  222.338; ENMIN  =  166.753 eV
   QCUT   =   -4.042; QGAM   =    8.085    optimization parameters

   Description
     l     E      TYP  RCUT    TYP  RCUT
     1   .000     23  2.300
     1  -.100     23  2.300
     2   .000     23  2.500
     2   .000     23  2.500
     0   .000     23  2.500
     0  1.500     23  2.500
     3   .000      7   .000

 POTCAR:   PAW_PBE O 08Apr2002
   VRHFIN =O: s2p4

   TITEL  = PAW_PBE O 08Apr2002
   POMASS =   16.000; ZVAL   =    6.000    mass and valenz
   ENMAX  =  400.000; ENMIN  =  300.000 eV
   QCUT   =   -5.520; QGAM   =   11.041    optimization parameters

   Description
     l     E      TYP  RCUT    TYP  RCUT
     0   .000     23  1.200
     0  -.700     23  1.200
     1   .000     23  1.520
     1   .600     23  1.520
     2   .000      7  1.500

 POTCAR:    PAW_PBE F 08Apr2002
   VRHFIN =F: s2p5

   TITEL  = PAW_PBE F 08Apr2002
   POMASS =   18.998; ZVAL   =    7.000    mass and valenz
   ENMAX  =  400.000; ENMIN  =  300.000 eV

 Optimization of the real space projectors (new method)

 maximal supplied QI-value         = 15.12
 optimisation between [QCUT,QGAM] = [ 13.45, 27.06] = [ 50.69,205.06] Ry
 Optimized for a Real-space Cutoff    1.49 Angstroem

   l    n(q)    QCUT    max X(q) W(low)/X(q) W(high)/X(q)  e(spline)
   1     12    13.455     4.841    0.13E-05    0.83E-06    0.56E-07
   1     12    13.455     5.701    0.32E-04    0.25E-04    0.17E-06
   2     11    13.455     4.569    0.64E-05    0.34E-05    0.50E-07
   2     11    13.455    32.276    0.49E-04    0.38E-04    0.46E-06
   0     12    13.455    30.046    0.17E-04    0.41E-05    0.51E-07
   0     12    13.455    45.433    0.12E-04    0.27E-04    0.38E-06
 Optimization of the real space projectors (new method)

[...]

   l    n(q)    QCUT    max X(q) W(low)/X(q) W(high)/X(q)  e(spline)
   0      9    13.368     4.192    0.20E-04    0.58E-05    0.56E-07
   0      9    13.368     8.473    0.60E-04    0.52E-04    0.21E-06
   1      9    13.368     2.474    0.22E-04    0.17E-04    0.28E-07
   1      9    13.368     3.912    0.94E-04    0.97E-04    0.20E-06
 Optimization of the real space projectors (new method)

 maximal supplied QI-value         = 24.76
 optimisation between [QCUT,QGAM] = [ 13.37, 26.98] = [ 50.04,203.89] Ry
 Optimized for a Real-space Cutoff    1.17 Angstroem

   l    n(q)    QCUT    max X(q) W(low)/X(q) W(high)/X(q)  e(spline)
   0      9    13.368    14.049    0.39E-04    0.34E-04    0.16E-06
   0      9    13.368     8.945    0.54E-04    0.47E-04    0.20E-06
   1      9    13.368     7.086    0.99E-04    0.10E-03    0.23E-06
   1      9    13.368     6.747    0.86E-04    0.89E-04    0.21E-06

 PAW_PBE Ti_pv 07Sep2000                :
 PAW_PBE O 08Apr2002                    :
  PAW_PBE F 08Apr2002                   :

 POSCAR: TiOF2 2x2x2 config 0008
  positions in direct lattice
  velocities in cartesian coordinates
 exchange correlation table for  LEXCH =       14
   RHO(1)=    0.500       N(1)  =     2000
   RHO(2)=  100.500       N(2)  =     4000

 VTST: version 3.1, (03/28/14)

 CHAIN: initializing optimizer

 OPT: Using VASP QUASI-newton optimizer
 CHAIN: Read ICHAIN            0

 POSCAR: TiOF2 2x2x2 config 0008
  positions in direct lattice
  velocities in cartesian coordinates

 ion  position               nearest neighbor table
   1  1.000  0.000  0.989-  11 1.80  17 1.90  21 1.90  25 1.92  27 1.92  31 1.96
   2  1.000  0.000  0.511-  11 1.80  22 1.90  18 1.90  26 1.92  28 1.92  31 1.96
   3  0.000  0.500  0.001-  12 1.87  13 1.88  23 1.95  19 1.95  25 1.98  27 1.98
   4  0.000  0.500  0.499-  12 1.87  13 1.88  24 1.95  20 1.95  26 1.98  28 1.98
   5  0.500  0.991  0.001-  14 1.88  15 1.89   9 1.90  29 2.04  21 2.06  17 2.06
   6  0.500  0.991  0.499-  14 1.88  15 1.89  10 1.90  30 2.04  22 2.06  18 2.06
   7  0.500  0.516  0.989-   9 1.81  16 1.81  32 1.97  19 2.01  23 2.01  29 2.05
   8  0.500  0.516  0.511-  10 1.81  16 1.81  32 1.97  20 2.01  24 2.01  30 2.05
   9  0.500  0.747  0.004-   7 1.81   5 1.90
  10  0.500  0.747  0.496-   8 1.81   6 1.90
  11  0.000  1.000  0.750-   2 1.80   1 1.80
  12  0.000  0.501  0.250-   3 1.87   4 1.87
  13  1.000  0.501  0.750-   4 1.88   3 1.88
  14  0.500  0.005  0.250-   6 1.88   5 1.88
  15  0.500  0.006  0.750-   5 1.89   6 1.89
  16  0.500  0.490  0.750-   7 1.81   8 1.81
  17  0.240  0.001  0.005-   1 1.90   5 2.06
  18  0.240  0.001  0.495-   2 1.90   6 2.06
  19  0.247  0.499  0.003-   3 1.95   7 2.01
  20  0.247  0.499  0.497-   4 1.95   8 2.01
  21  0.760  0.001  0.005-   1 1.90   5 2.06
  22  0.760  0.001  0.495-   2 1.90   6 2.06
  23  0.754  0.499  0.003-   3 1.95   7 2.01
  24  0.754  0.499  0.497-   4 1.95   8 2.01
  25  1.000  0.246  0.005-   1 1.92   3 1.98
  26  1.000  0.246  0.495-   2 1.92   4 1.98
  27  0.000  0.754  0.005-   1 1.92   3 1.98
  28  0.000  0.754  0.495-   2 1.92   4 1.98
  29  0.500  0.253  0.004-   5 2.04   7 2.05
  30  0.500  0.253  0.496-   6 2.04   8 2.05
  31  1.000  1.000  0.250-   1 1.96   2 1.96
  32  0.500  0.485  0.250-   7 1.97   8 1.97

IMPORTANT INFORMATION: All symmetrisations will be switched off!
NOSYMM: (Re-)initialisation of all symmetry stuff for point group C_1.

 KPOINTS: Title

Automatic generation of k-mesh.
Space group operators:
 irot       det(A)        alpha          n_x          n_y          n_z        tau_x        tau_y        tau_z
    1     1.000000     0.000000     1.000000     0.000000     0.000000     0.000000     0.000000     0.000000

 Subroutine IBZKPT returns following result:

 Found     32 irreducible k-points:

 Following reciprocal coordinates:
            Coordinates               Weight
  0.125000  0.125000  0.125000      2.000000
  0.375000  0.125000  0.125000      2.000000
 -0.375000  0.125000  0.125000      2.000000
 -0.125000  0.125000  0.125000      2.000000
  0.125000  0.375000  0.125000      2.000000
  0.375000  0.375000  0.125000      2.000000
 -0.375000  0.375000  0.125000      2.000000
 -0.125000  0.375000  0.125000      2.000000
  0.125000 -0.375000  0.125000      2.000000
  0.375000 -0.375000  0.125000      2.000000
 -0.375000 -0.375000  0.125000      2.000000
 -0.125000 -0.375000  0.125000      2.000000
  0.125000 -0.125000  0.125000      2.000000
  0.375000 -0.125000  0.125000      2.000000
 -0.375000 -0.125000  0.125000      2.000000
 -0.125000 -0.125000  0.125000      2.000000
  0.125000  0.125000  0.375000      2.000000
  0.375000  0.125000  0.375000      2.000000
 -0.375000  0.125000  0.375000      2.000000
 -0.125000  0.125000  0.375000      2.000000
  0.125000  0.375000  0.375000      2.000000
  0.375000  0.375000  0.375000      2.000000
 -0.375000  0.375000  0.375000      2.000000
 -0.125000  0.375000  0.375000      2.000000
  0.125000 -0.375000  0.375000      2.000000
  0.375000 -0.375000  0.375000      2.000000
 -0.375000 -0.375000  0.375000      2.000000
 -0.125000 -0.375000  0.375000      2.000000
  0.125000 -0.125000  0.375000      2.000000
  0.375000 -0.125000  0.375000      2.000000
 -0.375000 -0.125000  0.375000      2.000000
 -0.125000 -0.125000  0.375000      2.000000

 Following cartesian coordinates:
            Coordinates               Weight
  0.015817  0.016045  0.016635      2.000000
  0.047450  0.016045  0.016635      2.000000
 -0.047450  0.016045  0.016635      2.000000
 -0.015817  0.016045  0.016635      2.000000
  0.015817  0.048134  0.016635      2.000000
  0.047450  0.048134  0.016635      2.000000
 -0.047450  0.048134  0.016635      2.000000
 -0.015817  0.048134  0.016635      2.000000
  0.015817 -0.048134  0.016635      2.000000
  0.047450 -0.048133  0.016635      2.000000
 -0.047450 -0.048134  0.016635      2.000000
 -0.015817 -0.048134  0.016635      2.000000
  0.015817 -0.016044  0.016635      2.000000
  0.047450 -0.016044  0.016635      2.000000
 -0.047450 -0.016045  0.016635      2.000000
 -0.015817 -0.016045  0.016635      2.000000
  0.015817  0.016045  0.049904      2.000000
  0.047450  0.016045  0.049904      2.000000
 -0.047450  0.016045  0.049904      2.000000
 -0.015817  0.016045  0.049904      2.000000
  0.015817  0.048134  0.049904      2.000000
  0.047450  0.048134  0.049904      2.000000
 -0.047450  0.048134  0.049904      2.000000
 -0.015817  0.048134  0.049904      2.000000
  0.015817 -0.048133  0.049904      2.000000
  0.047450 -0.048133  0.049904      2.000000
 -0.047450 -0.048134  0.049904      2.000000
 -0.015817 -0.048133  0.049904      2.000000
  0.015817 -0.016044  0.049904      2.000000
  0.047450 -0.016044  0.049904      2.000000
 -0.047450 -0.016044  0.049904      2.000000
 -0.015817 -0.016044  0.049904      2.000000

 SYSTEM =  LTO
 POSCAR =  TiOF2 2x2x2 config 0008

 Startparameter for this run:
   NWRITE =      2    write-flag & timer
   PREC   = accura    normal or accurate (medium, high low for compatibility)
   ISTART =      1    job   : 0-new  1-cont  2-samecut
   ICHARG =      0    charge: 1-file 2-atom 10-const
   ISPIN  =      2    spin polarized calculation?
   LNONCOLLINEAR =      F non collinear calculations
   LSORBIT =      F    spin-orbit coupling
   INIWAV =      1    electr: 0-lowe 1-rand  2-diag
   LASPH  =      T    aspherical Exc in radial PAW
   METAGGA=      F    non-selfconsistent MetaGGA calc.

 Electronic Relaxation 1
   ENCUT  =  700.0 eV  51.45 Ry    7.17 a.u.  17.05 16.81 16.21*2*pi/ulx,y,z
   ENINI  =  700.0     initial cutoff
   ENAUG  =  613.6 eV  augmentation charge cutoff
   NELM   =     60;   NELMIN=  2; NELMDL=  0     # of ELM steps
   EDIFF  = 0.1E-05   stopping-criterion for ELM
   LREAL  =      T    real-space projection
   NLSPLINE    = F    spline interpolate recip. space projectors
   LCOMPAT=      F    compatible to vasp.4.4
   GGA_COMPAT  = T    GGA compatible to vasp.4.4-vasp.4.6
   LMAXPAW     = -100 max onsite density
   LMAXMIX     =    4 max onsite mixed and CHGCAR
   VOSKOWN=      0    Vosko Wilk Nusair interpolation
   ROPT   =   -0.00010  -0.00010  -0.00010
 Ionic relaxation
   EDIFFG = -.1E-01   stopping-criterion for IOM
   NSW    =    100    number of steps for IOM
   NBLOCK =      1;   KBLOCK =    100    inner block; outer block
   IBRION =      1    ionic relax: 0-MD 1-quasi-New 2-CG
   NFREE  =      0    steps in history (QN), initial steepest desc. (CG)
   ISIF   =      3    stress and relaxation
   IWAVPR =     11    prediction:  0-non 1-charg 2-wave 3-comb
   ISYM   =      0    0-nonsym 1-usesym 2-fastsym
   LCORR  =      T    Harris-Foulkes like correction to forces

   POTIM  = 0.5000    time-step for ionic-motion
   TEIN   =    0.0    initial temperature
   TEBEG  =    0.0;   TEEND  =   0.0 temperature during run
   SMASS  =  -3.00    Nose mass-parameter (am)
   estimated Nose-frequenzy (Omega)   =  0.10E-29 period in steps =****** mass=  -0.143E-26a.u.
   SCALEE = 1.0000    scale energy and forces
[...]
     46     -15.9170      1.00000
     47     -15.7163      1.00000
     48     -14.9846      1.00000
     49      -7.5590      1.00000
     50      -7.5536      1.00000
     51      -7.2666      1.00000
     52      -6.9596      1.00000
     53      -6.9531      1.00000
     54      -6.5921      1.00000
     55      -6.5844      1.00000
     56      -6.2713      1.00000
     57      -6.0024      1.00000
     58      -5.9792      1.00000
     59      -5.9780      1.00000
     60      -5.9259      1.00000
[...]
    146       4.0967      0.00000
    147       4.1449      0.00000
    148       4.1704      0.00000
    149       4.2811      0.00000
    150       4.5026      0.00000
    151       4.6479      0.00000
    152       4.8089      0.00000
    153       4.9449      0.00000
    154       5.0927      0.00000
    155       5.2425      0.00000
    156       5.6168      0.00000
    157       6.0475      0.00000
    158       6.2685      0.00000
    159       6.3831      0.00000
    160       6.7274      0.00000

[...]

 spin component 2

[...]

 k-point    32 :      -0.1250   -0.1250    0.3750
  band No.  band energies     occupation
      1     -36.0264      1.00000
      2     -36.0239      1.00000
      3     -35.9696      1.00000
      4     -35.9671      1.00000
      5     -35.9153      1.00000
      6     -35.8665      1.00000
      7     -35.2899      1.00000
      8     -35.2885      1.00000
      9     -35.2224      1.00000
     10     -35.2211      1.00000
     11     -34.8547      1.00000
     12     -34.8238      1.00000
     13     -34.3539      1.00000
     14     -34.3513      1.00000
     15     -34.2127      1.00000
     16     -34.1908      1.00000
     17     -34.1895      1.00000
     18     -34.1671      1.00000
     19     -34.1220      1.00000
     20     -34.1155      1.00000
     21     -33.9553      1.00000
     22     -33.9540      1.00000
     23     -33.7569      1.00000
     24     -33.7255      1.00000
     25     -23.9480      1.00000
     26     -23.9073      1.00000
     27     -23.5401      1.00000
     28     -23.4255      1.00000
     29     -23.4202      1.00000
     30     -23.3601      1.00000
     31     -23.3204      1.00000
     32     -23.0114      1.00000
     33     -22.9966      1.00000
     34     -22.9482      1.00000
     35     -22.9425      1.00000
     36     -22.6138      1.00000
     37     -22.6074      1.00000
     38     -22.2088      1.00000
     39     -21.4832      1.00000
     40     -21.4690      1.00000
     41     -17.7170      1.00000
     42     -16.5327      1.00000
     43     -16.2351      1.00000
     44     -16.1841      1.00000
     45     -15.9772      1.00000
     46     -15.9260      1.00000
     47     -15.5464      1.00000
     48     -15.2351      1.00000
     49      -7.5556      1.00000
     50      -7.5494      1.00000
     51      -6.9690      1.00000
     52      -6.9562      1.00000
     53      -6.8513      1.00000
     54      -6.5883      1.00000
     55      -6.5791      1.00000
     56      -6.2166      1.00000
     57      -6.0235      1.00000
     58      -5.9286      1.00000
     59      -5.9002      1.00000
     60      -5.8822      1.00000
[...]
    146       4.1014      0.00000
    147       4.1147      0.00000
    148       4.1854      0.00000
    149       4.2394      0.00000
    150       4.4619      0.00000
    151       4.6069      0.00000
    152       4.9086      0.00000
    153       5.0290      0.00000
    154       5.3638      0.00000
    155       5.4855      0.00000
    156       5.5804      0.00000
    157       5.8832      0.00000
    158       6.2915      0.00000
    159       6.5533      0.00000
    160       6.8365      0.00000

 soft charge-density along one line, spin component           1
         0         1         2         3         4         5         6         7         8         9
 total charge-density along one line

 soft charge-density along one line, spin component           2
         0         1         2         3         4         5         6         7         8         9
 total charge-density along one line

------------------------ aborting loop because EDIFF is reached ----------------------------------------

 total charge

# of ion       s       p       d       tot
    1        0.325   6.498   1.753   8.577
    2        0.325   6.498   1.753   8.577
    3        0.302   6.465   1.709   8.476
    4        0.302   6.465   1.709   8.476
    5        0.299   6.448   1.724   8.471
    6        0.299   6.448   1.723   8.471
    7        0.317   6.463   1.795   8.575
    8        0.317   6.463   1.795   8.575
    9        1.567   3.460   0.000   5.028
   10        1.567   3.460   0.000   5.028
   11        1.574   3.488   0.000   5.063
   12        1.569   3.447   0.000   5.016
   13        1.567   3.442   0.000   5.010
   14        1.568   3.447   0.000   5.015
   15        1.566   3.443   0.000   5.009
   16        1.572   3.487   0.000   5.059
   17        1.731   4.376   0.000   6.107
   18        1.731   4.376   0.000   6.107
   19        1.729   4.380   0.000   6.110
   20        1.729   4.380   0.000   6.110
   21        1.731   4.376   0.000   6.107
   22        1.731   4.376   0.000   6.107
   23        1.729   4.380   0.000   6.110
   24        1.729   4.380   0.000   6.110
   25        1.731   4.389   0.000   6.119
   26        1.731   4.389   0.000   6.119
   27        1.731   4.388   0.000   6.118
   28        1.731   4.388   0.000   6.118
   29        1.728   4.369   0.000   6.097
   30        1.728   4.369   0.000   6.097
   31        1.732   4.393   0.000   6.125
   32        1.731   4.390   0.000   6.121
tot         42.721 149.523  13.962 206.206

 magnetization (x)

[...]

  FORCE on cell =-STRESS in cart. coord.  units (eV):
  Direction    XX          YY          ZZ          XY          YZ          ZX
  Alpha Z   756.82723   756.82723   756.82723
  Ewald   -4392.00726 -4278.84818 -4095.30289    -0.00380    -0.00584    -0.00370
  Hartree  2667.16544  2741.78531  2852.37915    -0.00215    -0.00301    -0.00195
  E(xc)   -1231.72691 -1231.91632 -1232.36977    -0.00000    -0.00000    -0.00000
  Local   -1913.66817 -2131.14071 -2484.31627     0.00589     0.00876     0.00559
  n-local  -974.32475  -967.92228  -957.37840    -0.00003    -0.00005    -0.00003
  augment   744.20155   753.33566   773.96309     0.00001    -0.00001     0.00000
  Kinetic  4343.53012  4357.88731  4386.20284     0.00017     0.00031     0.00019
  Fock        0.00000     0.00000     0.00000     0.00000     0.00000     0.00000
  Total      -0.00275     0.00802     0.00497     0.00009     0.00016     0.00009
  in kB      -0.00951     0.02777     0.01721     0.00031     0.00054     0.00029

 VOLUME and BASIS-vectors are now :
  energy-cutoff  :      700.00
  volume of cell :      462.68
      direct lattice vectors                 reciprocal lattice vectors
     7.903098704 -0.000002739 -0.000003055     0.126532647  0.000000044  0.000000049
    -0.000002696  7.790828059 -0.000004558     0.000000044  0.128356061  0.000000075
    -0.000002900 -0.000004387  7.514434917     0.000000051  0.000000078  0.133077206

  length of vectors
     7.903098704  7.790828059  7.514434917     0.126532647  0.128356061  0.133077206

 FORCES acting on ions
    electron-ion (+dipol)            ewald-force                    non-local-force                 convergence-correction
   0.224E-03 0.394E+01 0.316E+02   -.220E-03 -.392E+01 -.321E+02   -.311E-05 -.115E-01 0.487E+00   0.439E-06 0.131E-02 0.289E-03
   0.318E-04 0.394E+01 -.316E+02   -.288E-04 -.392E+01 0.321E+02   -.178E-05 -.115E-01 -.487E+00   0.425E-06 0.131E-02 -.289E-03
   -.522E-03 -.429E+01 0.241E+02   0.508E-03 0.428E+01 -.240E+02   0.121E-04 0.739E-02 -.397E-01   0.762E-06 -.126E-02 -.773E-03
   -.665E-03 -.429E+01 -.241E+02   0.648E-03 0.428E+01 0.240E+02   0.148E-04 0.739E-02 0.397E-01   0.665E-06 -.126E-02 0.773E-03
   0.832E-04 0.198E+02 0.237E+02   -.818E-04 -.208E+02 -.237E+02   -.179E-05 0.962E+00 -.521E-01   -.179E-05 0.218E-02 -.697E-03
   0.655E-04 0.198E+02 -.237E+02   -.657E-04 -.208E+02 0.237E+02   -.100E-05 0.962E+00 0.521E-01   -.118E-05 0.219E-02 0.694E-03
   -.711E-03 -.214E+02 0.180E+02   0.704E-03 0.222E+02 -.190E+02   0.132E-04 -.815E+00 0.102E+01   0.261E-05 -.456E-02 0.894E-03
   -.838E-03 -.214E+02 -.180E+02   0.828E-03 0.222E+02 0.190E+02   0.154E-04 -.815E+00 -.102E+01   0.303E-05 -.457E-02 -.893E-03
   -.103E-03 -.358E+02 -.286E+01   0.606E-04 0.387E+02 0.434E+01   0.530E-04 -.282E+01 -.148E+01   0.763E-08 0.903E-03 0.503E-03
   -.228E-03 -.358E+02 0.286E+01   0.194E-03 0.387E+02 -.434E+01   0.450E-04 -.282E+01 0.148E+01   0.228E-06 0.968E-03 -.503E-03
   -.965E-04 0.285E+01 -.204E-03   0.114E-03 -.297E+01 0.223E-03   -.195E-04 0.115E+00 -.117E-04   0.284E-06 0.809E-03 0.249E-05
   -.358E-03 -.305E+01 -.331E-03   0.339E-03 0.310E+01 0.394E-03   0.290E-04 -.427E-01 -.400E-04   0.444E-06 -.727E-03 -.254E-04
   0.244E-03 -.279E+01 -.438E-03   -.260E-03 0.286E+01 0.461E-03   0.166E-04 -.677E-01 -.474E-04   0.548E-06 -.695E-03 0.248E-04
   0.794E-05 -.576E+01 0.801E-03   -.486E-05 0.756E+01 -.994E-03   -.309E-05 -.180E+01 0.148E-03   -.385E-06 0.134E-02 0.695E-04
   0.191E-04 -.948E+01 0.192E-02   -.191E-04 0.114E+02 -.205E-02   -.548E-07 -.191E+01 0.168E-03   -.309E-06 0.139E-02 -.658E-04
   -.368E-03 0.264E+02 0.362E-03   0.371E-03 -.314E+02 -.409E-03   0.199E-05 0.500E+01 0.150E-04   0.524E-06 -.205E-02 0.683E-05
   -.853E+02 0.687E-01 0.309E+01   0.937E+02 0.850E+00 -.110E+01   -.840E+01 -.923E+00 -.200E+01   0.910E-03 0.111E-02 0.446E-03
   -.853E+02 0.689E-01 -.309E+01   0.937E+02 0.850E+00 0.110E+01   -.840E+01 -.923E+00 0.200E+01   0.965E-03 0.111E-02 -.448E-03
   -.253E+02 0.213E+01 0.408E+01   0.286E+02 -.367E+01 -.275E+01   -.334E+01 0.155E+01 -.133E+01   0.636E-03 -.153E-02 0.475E-03
   -.253E+02 0.213E+01 -.408E+01   0.286E+02 -.367E+01 0.275E+01   -.334E+01 0.155E+01 0.133E+01   0.652E-03 -.154E-02 -.476E-03
   0.853E+02 0.694E-01 0.309E+01   -.937E+02 0.850E+00 -.110E+01   0.840E+01 -.923E+00 -.200E+01   -.910E-03 0.111E-02 0.446E-03
   0.853E+02 0.693E-01 -.309E+01   -.937E+02 0.850E+00 0.110E+01   0.840E+01 -.923E+00 0.200E+01   -.965E-03 0.111E-02 -.448E-03
   0.253E+02 0.213E+01 0.408E+01   -.286E+02 -.367E+01 -.275E+01   0.334E+01 0.155E+01 -.133E+01   -.639E-03 -.153E-02 0.475E-03
   0.253E+02 0.213E+01 -.408E+01   -.286E+02 -.367E+01 0.275E+01   0.334E+01 0.155E+01 0.133E+01   -.655E-03 -.154E-02 -.476E-03
   -.123E-03 -.373E+02 0.367E+01   0.366E-04 0.408E+02 -.167E+01   0.938E-04 -.350E+01 -.200E+01   0.996E-06 0.716E-04 0.377E-03
   -.294E-03 -.373E+02 -.367E+01   0.219E-03 0.408E+02 0.167E+01   0.841E-04 -.350E+01 0.200E+01   0.977E-06 0.500E-04 -.377E-03
   0.159E-03 0.378E+02 0.287E+01   -.106E-03 -.414E+02 -.848E+00   -.597E-04 0.356E+01 -.202E+01   0.239E-06 0.129E-03 0.458E-03
   0.362E-03 0.378E+02 -.287E+01   -.335E-03 -.414E+02 0.848E+00   -.329E-04 0.356E+01 0.202E+01   0.224E-06 0.149E-03 -.459E-03
   0.276E-03 0.166E+02 0.840E+01   -.250E-03 -.162E+02 -.733E+01   -.301E-04 -.362E+00 -.108E+01   -.347E-06 0.535E-03 0.335E-03
   0.401E-03 0.166E+02 -.840E+01   -.382E-03 -.162E+02 0.733E+01   -.225E-04 -.362E+00 0.108E+01   -.217E-06 0.475E-03 -.335E-03
   -.391E-04 0.317E+01 0.551E-04   0.548E-04 -.326E+01 -.488E-04   -.176E-04 0.923E-01 -.663E-05   0.203E-06 0.103E-02 -.202E-05
   0.207E-03 0.176E+02 -.654E-04   -.197E-03 -.233E+02 0.612E-04   -.129E-04 0.560E+01 0.191E-04   0.881E-06 -.247E-02 -.704E-05
   -.337E-03 -.352E+01 -.106E-03   -.655E-13 0.142E-13 -.418E-13   0.332E-03 0.352E+01 0.115E-03   0.496E-05 -.445E-02 -.650E-05

 POSITION                                       TOTAL-FORCE (eV/Angst)
      7.90310      0.00209      7.43406         0.000001      0.001497      0.004031
      7.90310      0.00209      3.83758         0.000002      0.001501     -0.004036
     -0.00000      3.89486      0.00492        -0.000002      0.000803      0.001678
     -0.00000      3.89485      3.75229        -0.000001      0.000799     -0.001674
      3.95155      7.71795      0.00509        -0.000002     -0.000328      0.002229
      3.95154      7.71795      3.75211        -0.000002     -0.000309     -0.002229
      3.95155      4.01821      7.43454         0.000009      0.000456      0.003027
      3.95155      4.01821      3.83711         0.000009      0.000438     -0.003016
      3.95155      5.82018      0.02757         0.000010      0.000233      0.004267
      3.95154      5.82018      3.72964         0.000010      0.000241     -0.004268
     -0.00000      7.78717      5.63582        -0.000002      0.000396      0.000009
     -0.00000      3.89971      1.87861         0.000010      0.001828     -0.000002
      7.90310      3.90174      5.63582         0.000001      0.002795      0.000000
      3.95155      0.04145      1.87861        -0.000000      0.005346      0.000025
      3.95155      0.04608      5.63583        -0.000000     -0.001095     -0.000025
      3.95155      3.81761      5.63582         0.000006      0.002771     -0.000025
      1.89524      0.01043      0.03770        -0.000098     -0.003030     -0.000445
      1.89524      0.01043      3.71951        -0.000083     -0.003030      0.000449
      1.94811      3.88538      0.02557         0.000220     -0.000662     -0.000513
      1.94811      3.88537      3.73164         0.000229     -0.000661      0.000518
      6.00786      0.01043      0.03770         0.000102     -0.003042     -0.000448
      6.00786      0.01043      3.71951         0.000085     -0.003042      0.000445
      5.95499      3.88537      0.02557        -0.000243     -0.000644     -0.000526
      5.95498      3.88537      3.73164        -0.000255     -0.000642      0.000522
      7.90310      1.91569      0.03563         0.000009      0.000148     -0.000622
      7.90309      1.91568      3.72158         0.000010      0.000147      0.000622
     -0.00000      5.87754      0.03686        -0.000006      0.000925      0.000581
     -0.00000      5.87754      3.72036        -0.000006      0.000924     -0.000583
      3.95155      1.96771      0.03108        -0.000004     -0.000188     -0.003380
      3.95155      1.96771      3.72613        -0.000004     -0.000204      0.003382
      7.90310      7.78829      1.87860        -0.000002      0.001327     -0.000002
      3.95155      3.77779      1.87861        -0.000002     -0.005701      0.000008
    total drift:                                0.000000      0.000215      0.000002

  FREE ENERGIE OF THE ION-ELECTRON SYSTEM (eV)
  free  energy   TOTEN  =      -211.60239723 eV

  energy  without entropy=     -211.60239723  energy(sigma->0) =     -211.60239723

 stress matrix after NEB project (eV)
     -0.00275      0.00009      0.00009
      0.00009      0.00802      0.00016
      0.00009      0.00016      0.00497
  FORCES: max atom, RMS     0.005701    0.002846
  FORCE total and by dimension    0.016098    0.005701
  Stress total and by dimension    0.009830    0.008019
 Quasi-Newton relaxation of ions (Broydens 2nd method)
  g(Force)  = 0.125E-04   g(Stress)= 0.146E-06

 Reset! Starting new Quasi-Newton update for ions

 reached required accuracy - stopping structural energy minimisation
 writing wavefunctions

 total charge

[...]

 magnetization (x)

# of ion       s       p       d       tot
    1       -0.000  -0.000   0.000  -0.000
    2       -0.000  -0.000   0.000  -0.000
    3       -0.000   0.000   0.000   0.000
    4       -0.000   0.000   0.000   0.000
    5       -0.000  -0.000  -0.000  -0.000
    6       -0.000  -0.000  -0.000  -0.000
    7        0.000  -0.000  -0.000  -0.000
    8       -0.000  -0.000  -0.000  -0.000
    9        0.000   0.000   0.000   0.000
   10       -0.000  -0.000   0.000  -0.000
   11        0.000   0.000   0.000   0.000
   12       -0.000  -0.000   0.000  -0.000
   13        0.000  -0.000   0.000  -0.000
   14       -0.000   0.000   0.000  -0.000
   15        0.000   0.000   0.000   0.000
   16        0.000   0.000   0.000   0.000
   17        0.000   0.000   0.000   0.000
   18        0.000   0.000   0.000   0.000
   19       -0.000   0.000   0.000   0.000
   20       -0.000   0.000   0.000   0.000
   21        0.000   0.000   0.000   0.000
   22       -0.000  -0.000   0.000  -0.000
   23        0.000   0.000   0.000   0.000
   24       -0.000   0.000   0.000   0.000
   25       -0.000  -0.000   0.000  -0.000
   26       -0.000   0.000   0.000   0.000
   27        0.000  -0.000   0.000  -0.000
   28        0.000  -0.000   0.000  -0.000
   29        0.000   0.000   0.000   0.000
   30        0.000   0.000   0.000   0.000
   31        0.000  -0.000   0.000   0.000
   32        0.000   0.000   0.000   0.000
tot         -0.000   0.000  -0.000   0.000